POSCAR1Pd_                              
   1.00000000000000     
    12.7690000533999992    0.0000000000000000    0.0000000000000000
    -6.3845000266999996   11.0582784271999994    0.0000000000000000
     0.0000000000000000    0.0000000000000000   18.1282997130999988
   Mo   S    Co   C    H 
    16    31     1     2     4
Direct
  0.0841368395646430  0.1638344640462983  0.1435305146512737
  0.3343680629771215  0.1644855659376706  0.1435869778323772
  0.5849900928549895  0.1651345759551000  0.1435818140270306
  0.8340948680840353  0.1640612056584652  0.1435915571734302
  0.0841317127891405  0.4142639371518174  0.1434085087391701
  0.3346386868568483  0.4143582104554280  0.1421154557660682
  0.5818070418892745  0.4137792379733156  0.1413955759230320
  0.8344967319260141  0.4153536416904159  0.1441393792947688
  0.0853200671727645  0.6648299445764985  0.1441080739883274
  0.3344028114622423  0.6640001617428269  0.1430479580894313
  0.5814304397084175  0.6629544213035425  0.1400119338175519
  0.8326097268304243  0.6630265965967975  0.1470127462896294
  0.0850681377605995  0.9142823122783050  0.1442868878261921
  0.3349763173127996  0.9145627280490345  0.1437729374589651
  0.5850372961482060  0.9141145048030203  0.1431573086090440
  0.8344083705445913  0.9129953980790165  0.1437465035826386
  0.1674214495809465  0.0800509496523740  0.0578040906690944
  0.1681884620116495  0.0816695300721492  0.2297668159740621
  0.4182047199591774  0.0813585960629340  0.0578773665771407
  0.4183433342049468  0.0814914704029622  0.2294817843811806
  0.6676958564220166  0.0812433031641357  0.0575909710258853
  0.6677046619682963  0.0806709277485807  0.2294709045187177
  0.9173746939193727  0.0800832748291933  0.0578491419559001
  0.9172279114416090  0.0803601456804372  0.2293877959079700
  0.1664929301125620  0.3301524092317892  0.0573299612093297
  0.1681135962589287  0.3310512008250861  0.2287582554819487
  0.4165828424170474  0.3294567756823742  0.0559824678237045
  0.4186509818956745  0.3338383760743969  0.2290592549826560
  0.6685075040128939  0.3317387735667133  0.0568064950316643
  0.6672135036413569  0.3342987390411313  0.2287565112416011
  0.9170121640281381  0.3312667809670173  0.0578974067222503
  0.9176018917662576  0.3306170504143247  0.2295380768740178
  0.1671236136418134  0.5811067165172551  0.0575277407271167
  0.1686947299797302  0.5807899172110474  0.2294346557891046
  0.4156836789829260  0.5805971342724459  0.0551500948438203
  0.4191440521027509  0.5794449474102493  0.2284624068629665
  0.6693044024195789  0.5815409193003743  0.0588530087661581
  0.9167548864522946  0.5828621991039856  0.0593014424896630
  0.9205306751960568  0.5800303590168160  0.2306085970496247
  0.1680706770080700  0.8311297059936986  0.0580566623391185
  0.1689499815850103  0.8315111418502202  0.2300891723191562
  0.4180462430802553  0.8311524349772590  0.0575342168514368
  0.4185359198855184  0.8308919558397488  0.2291215287792933
  0.6690073479962996  0.8320157204677285  0.0559278814100493
  0.6670415431828614  0.8266126033577351  0.2281577120984426
  0.9167858221439622  0.8274993913471093  0.0593051088340325
  0.9192889145912569  0.8331791257764370  0.2304716541325074
  0.6384557065688765  0.5690668717177293  0.2491384292736600
  0.6000333038121215  0.5473225830119448  0.3964759794357901
  0.6928714583851612  0.5948430904411786  0.3488763242337809
  0.6144894880941024  0.5559109992066615  0.4564194701311528
  0.7865888555948976  0.6433161992894562  0.3685412199411331
  0.5051552169387878  0.4978821527758032  0.3789386393971365
  0.7715060548350386  0.6221664914026825  0.2509340808488382
 
  0.00000000E+00  0.00000000E+00  0.00000000E+00
  0.00000000E+00  0.00000000E+00  0.00000000E+00
  0.00000000E+00  0.00000000E+00  0.00000000E+00
  0.00000000E+00  0.00000000E+00  0.00000000E+00
  0.00000000E+00  0.00000000E+00  0.00000000E+00
  0.00000000E+00  0.00000000E+00  0.00000000E+00
  0.00000000E+00  0.00000000E+00  0.00000000E+00
  0.00000000E+00  0.00000000E+00  0.00000000E+00
  0.00000000E+00  0.00000000E+00  0.00000000E+00
  0.00000000E+00  0.00000000E+00  0.00000000E+00
  0.00000000E+00  0.00000000E+00  0.00000000E+00
  0.00000000E+00  0.00000000E+00  0.00000000E+00
  0.00000000E+00  0.00000000E+00  0.00000000E+00
  0.00000000E+00  0.00000000E+00  0.00000000E+00
  0.00000000E+00  0.00000000E+00  0.00000000E+00
  0.00000000E+00  0.00000000E+00  0.00000000E+00
  0.00000000E+00  0.00000000E+00  0.00000000E+00
  0.00000000E+00  0.00000000E+00  0.00000000E+00
  0.00000000E+00  0.00000000E+00  0.00000000E+00
  0.00000000E+00  0.00000000E+00  0.00000000E+00
  0.00000000E+00  0.00000000E+00  0.00000000E+00
  0.00000000E+00  0.00000000E+00  0.00000000E+00
  0.00000000E+00  0.00000000E+00  0.00000000E+00
  0.00000000E+00  0.00000000E+00  0.00000000E+00
  0.00000000E+00  0.00000000E+00  0.00000000E+00
  0.00000000E+00  0.00000000E+00  0.00000000E+00
  0.00000000E+00  0.00000000E+00  0.00000000E+00
  0.00000000E+00  0.00000000E+00  0.00000000E+00
  0.00000000E+00  0.00000000E+00  0.00000000E+00
  0.00000000E+00  0.00000000E+00  0.00000000E+00
  0.00000000E+00  0.00000000E+00  0.00000000E+00
  0.00000000E+00  0.00000000E+00  0.00000000E+00
  0.00000000E+00  0.00000000E+00  0.00000000E+00
  0.00000000E+00  0.00000000E+00  0.00000000E+00
  0.00000000E+00  0.00000000E+00  0.00000000E+00
  0.00000000E+00  0.00000000E+00  0.00000000E+00
  0.00000000E+00  0.00000000E+00  0.00000000E+00
  0.00000000E+00  0.00000000E+00  0.00000000E+00
  0.00000000E+00  0.00000000E+00  0.00000000E+00
  0.00000000E+00  0.00000000E+00  0.00000000E+00
  0.00000000E+00  0.00000000E+00  0.00000000E+00
  0.00000000E+00  0.00000000E+00  0.00000000E+00
  0.00000000E+00  0.00000000E+00  0.00000000E+00
  0.00000000E+00  0.00000000E+00  0.00000000E+00
  0.00000000E+00  0.00000000E+00  0.00000000E+00
  0.00000000E+00  0.00000000E+00  0.00000000E+00
  0.00000000E+00  0.00000000E+00  0.00000000E+00
  0.00000000E+00  0.00000000E+00  0.00000000E+00
  0.00000000E+00  0.00000000E+00  0.00000000E+00
  0.00000000E+00  0.00000000E+00  0.00000000E+00
  0.00000000E+00  0.00000000E+00  0.00000000E+00
  0.00000000E+00  0.00000000E+00  0.00000000E+00
  0.00000000E+00  0.00000000E+00  0.00000000E+00
  0.00000000E+00  0.00000000E+00  0.00000000E+00
