CONTCARIS2                              
   1.00000000000000     
    12.7690000533999992    0.0000000000000000    0.0000000000000000
    -6.3845000266999996   11.0582784271999994    0.0000000000000000
     0.0000000000000000    0.0000000000000000   18.1282997130999988
   Mo   S    Co   C    H 
    16    31     1     2     4
Direct
  0.0799363335948554  0.1660564621908782  0.1438429178197990
  0.3299745329883516  0.1678646716529890  0.1427275209353061
  0.5823905150695320  0.1707066305851659  0.1441974970684706
  0.8304982262804727  0.1666973646455669  0.1443466985322331
  0.0808996270130077  0.4166455546106634  0.1425959993012303
  0.3298175518355787  0.4179643131208337  0.1417279466836922
  0.5778825296305400  0.4129584871639319  0.1350985246973428
  0.8344692909471882  0.4197210555243588  0.1420633382307761
  0.0837579343465608  0.6681714536748510  0.1425691614634763
  0.3305294552410449  0.6676093408394054  0.1428200732231418
  0.5763711145320878  0.6638207443581513  0.1455826495493776
  0.8319048944443651  0.6614975223718561  0.1461339777815495
  0.0804031086588012  0.9164429132416897  0.1445911691596448
  0.3320018228042469  0.9188045382372625  0.1438737347369791
  0.5806897080474287  0.9173878626746073  0.1451139678803222
  0.8293575800886547  0.9146057326935210  0.1463640248489581
  0.1619453204443504  0.0817167458327674  0.0578774570634960
  0.1648619720182888  0.0845750466497719  0.2297377719888356
  0.4159039163385497  0.0855386208382282  0.0579827413732306
  0.4149380848940871  0.0867583315957826  0.2291566469808247
  0.6635439506422010  0.0837254562489591  0.0590124543294536
  0.6641137493612185  0.0859333400478531  0.2303294632793024
  0.9118113295620022  0.0801884387458928  0.0592649491388430
  0.9141381014063105  0.0837214664104807  0.2306685356386212
  0.1620475848974220  0.3317373631427100  0.0567415501131520
  0.1642691500561348  0.3338310926373297  0.2286300972975027
  0.4083856328954288  0.3312108391644059  0.0530176623860221
  0.4190899773967544  0.3403365796853998  0.2255850867125848
  0.6673855611574270  0.3327512862185542  0.0538969088168030
  0.6686784302783104  0.3483125464006407  0.2277638967928899
  0.9143492092278551  0.3319013672255037  0.0569475088947306
  0.9149567941255722  0.3343864187823573  0.2288906238610579
  0.1650580589097187  0.5837062088370712  0.0563363629413275
  0.1647360456487371  0.5834228851345770  0.2286183220977392
  0.4148151971740504  0.5850780774104315  0.0568638528688688
  0.4084589727150202  0.5814920865199563  0.2291919261740056
  0.6656828537612821  0.5863848430550136  0.0598909305117674
  0.9164396321117705  0.5856943283765302  0.0570851850839507
  0.9216830715699579  0.5825791030803913  0.2296427068765508
  0.1655500734037887  0.8361363696387359  0.0576989086661268
  0.1655208453462096  0.8342238079043011  0.2296391693240129
  0.4158853065275832  0.8358401411606849  0.0580319017110858
  0.4132542758373486  0.8337928454201216  0.2299094991412018
  0.6638848379213572  0.8324033747459326  0.0600555387920135
  0.6619168243595425  0.8316249852247563  0.2310381467799473
  0.9113716916034951  0.8302944537242466  0.0603759358985808
  0.9138721048326192  0.8309119340024681  0.2309869332882348
  0.6376638665746094  0.5150745841823128  0.2566461478285892
  0.6498200212061043  0.5017981946041553  0.3633972368657690
  0.6276852717849181  0.5859564168596302  0.3505973440904592
  0.6664102378459740  0.4420743373895484  0.3973640300092354
  0.6127168205925283  0.6597982586507422  0.3643147695813836
  0.7670235704532223  0.6159152571047687  0.2422531570533279
  0.6101174705955371  0.6179077797612602  0.2350494218361764
 
  0.00000000E+00  0.00000000E+00  0.00000000E+00
  0.00000000E+00  0.00000000E+00  0.00000000E+00
  0.00000000E+00  0.00000000E+00  0.00000000E+00
  0.00000000E+00  0.00000000E+00  0.00000000E+00
  0.00000000E+00  0.00000000E+00  0.00000000E+00
  0.00000000E+00  0.00000000E+00  0.00000000E+00
  0.00000000E+00  0.00000000E+00  0.00000000E+00
  0.00000000E+00  0.00000000E+00  0.00000000E+00
  0.00000000E+00  0.00000000E+00  0.00000000E+00
  0.00000000E+00  0.00000000E+00  0.00000000E+00
  0.00000000E+00  0.00000000E+00  0.00000000E+00
  0.00000000E+00  0.00000000E+00  0.00000000E+00
  0.00000000E+00  0.00000000E+00  0.00000000E+00
  0.00000000E+00  0.00000000E+00  0.00000000E+00
  0.00000000E+00  0.00000000E+00  0.00000000E+00
  0.00000000E+00  0.00000000E+00  0.00000000E+00
  0.00000000E+00  0.00000000E+00  0.00000000E+00
  0.00000000E+00  0.00000000E+00  0.00000000E+00
  0.00000000E+00  0.00000000E+00  0.00000000E+00
  0.00000000E+00  0.00000000E+00  0.00000000E+00
  0.00000000E+00  0.00000000E+00  0.00000000E+00
  0.00000000E+00  0.00000000E+00  0.00000000E+00
  0.00000000E+00  0.00000000E+00  0.00000000E+00
  0.00000000E+00  0.00000000E+00  0.00000000E+00
  0.00000000E+00  0.00000000E+00  0.00000000E+00
  0.00000000E+00  0.00000000E+00  0.00000000E+00
  0.00000000E+00  0.00000000E+00  0.00000000E+00
  0.00000000E+00  0.00000000E+00  0.00000000E+00
  0.00000000E+00  0.00000000E+00  0.00000000E+00
  0.00000000E+00  0.00000000E+00  0.00000000E+00
  0.00000000E+00  0.00000000E+00  0.00000000E+00
  0.00000000E+00  0.00000000E+00  0.00000000E+00
  0.00000000E+00  0.00000000E+00  0.00000000E+00
  0.00000000E+00  0.00000000E+00  0.00000000E+00
  0.00000000E+00  0.00000000E+00  0.00000000E+00
  0.00000000E+00  0.00000000E+00  0.00000000E+00
  0.00000000E+00  0.00000000E+00  0.00000000E+00
  0.00000000E+00  0.00000000E+00  0.00000000E+00
  0.00000000E+00  0.00000000E+00  0.00000000E+00
  0.00000000E+00  0.00000000E+00  0.00000000E+00
  0.00000000E+00  0.00000000E+00  0.00000000E+00
  0.00000000E+00  0.00000000E+00  0.00000000E+00
  0.00000000E+00  0.00000000E+00  0.00000000E+00
  0.00000000E+00  0.00000000E+00  0.00000000E+00
  0.00000000E+00  0.00000000E+00  0.00000000E+00
  0.00000000E+00  0.00000000E+00  0.00000000E+00
  0.00000000E+00  0.00000000E+00  0.00000000E+00
  0.00000000E+00  0.00000000E+00  0.00000000E+00
  0.00000000E+00  0.00000000E+00  0.00000000E+00
  0.00000000E+00  0.00000000E+00  0.00000000E+00
  0.00000000E+00  0.00000000E+00  0.00000000E+00
  0.00000000E+00  0.00000000E+00  0.00000000E+00
  0.00000000E+00  0.00000000E+00  0.00000000E+00
  0.00000000E+00  0.00000000E+00  0.00000000E+00
