Generated by VASPKIT code               
   1.00000000000000     
    12.7690000533999992    0.0000000000000000    0.0000000000000000
    -6.3845000266999996   11.0582784271999994    0.0000000000000000
     0.0000000000000000    0.0000000000000000   18.1282997130999988
   Mo   S    Co   C    H 
    16    31     1     2     4
Direct
  0.0818266514901954  0.1663926717276735  0.1434216013626555
  0.3319830973531713  0.1682967124600195  0.1422547697300731
  0.5847903441809564  0.1718359178883262  0.1443273605698415
  0.8326475371975524  0.1672794459831117  0.1444331676982419
  0.0832412936800168  0.4174219441095796  0.1424202608113503
  0.3314183954333016  0.4179394425103241  0.1411464694478755
  0.5781799930813323  0.4136327146304739  0.1340527962569511
  0.8365049729953533  0.4207923391489252  0.1422228927500900
  0.0864131158938071  0.6688327382348065  0.1423831309672976
  0.3336133436855264  0.6684649404467011  0.1431102674930300
  0.5794397955988637  0.6607358996320303  0.1469679184751140
  0.8347316391906786  0.6632474416672391  0.1452015695884570
  0.0830265186201447  0.9170561822770374  0.1440781673306622
  0.3346649099303330  0.9194352275192134  0.1439092568330545
  0.5830834652364660  0.9174885947923734  0.1457394080605319
  0.8319026667335624  0.9147926832869996  0.1462289821672731
  0.1640439409603365  0.0821976376353911  0.0573672992560092
  0.1670689228646180  0.0850780668670054  0.2292755087426398
  0.4185933128642931  0.0860872174287539  0.0579591338186972
  0.4171002044967811  0.0876201619844296  0.2290287650639664
  0.6654448833686515  0.0838012688230221  0.0594430790125487
  0.6665997626601625  0.0870223547405612  0.2306254387569670
  0.9132712003685350  0.0803698766297873  0.0590944843966468
  0.9163323837934753  0.0840459411319997  0.2304861112183218
  0.1635590702669361  0.3320984852620088  0.0562369185668445
  0.1660960160020856  0.3340972110883719  0.2282322920761209
  0.4094807751556738  0.3310247312516270  0.0519742738665889
  0.4199790861833481  0.3404593046930494  0.2253156352683631
  0.6698071721432886  0.3336655970935685  0.0538351069505692
  0.6701508494985032  0.3513633556279200  0.2277594807964163
  0.9163037816501015  0.3327177354562884  0.0571317844450068
  0.9173476635023282  0.3354133868516644  0.2288433324543954
  0.1683360264939732  0.5847471644674453  0.0563432864786283
  0.1673955347541178  0.5841346888970239  0.2285981990602697
  0.4193704661846235  0.5868413046713872  0.0576376177980891
  0.4102062027238265  0.5802449508150310  0.2294755248554349
  0.6683127453358215  0.5869439669549869  0.0589060237941706
  0.9189846083430486  0.5859968636969092  0.0567703819809130
  0.9239007814122644  0.5841663110792540  0.2292964563171639
  0.1685097981245773  0.8365776753142949  0.0574355614089743
  0.1678942499552963  0.8348022780507257  0.2293796459028309
  0.4190341864896429  0.8365507437280023  0.0583969612993289
  0.4157777494889233  0.8344623625278026  0.2303539095272538
  0.6645573213916284  0.8298014091104448  0.0613897586830241
  0.6648244747300497  0.8308078339145190  0.2314045857676792
  0.9142288909164080  0.8315854095040761  0.0595890780256332
  0.9170213551808457  0.8320318949524480  0.2306073602008413
  0.6379009478717428  0.5206050742398336  0.2525578373887222
  0.6526107585585736  0.5150894627610680  0.3582400097133651
  0.6210872081743575  0.5936705273306612  0.3454747356700137
  0.6745893792692726  0.4645706947991584  0.3969470793170640
  0.6004556356546193  0.6603655091218646  0.3673530843275279
  0.7683703616493853  0.6197047946018676  0.2397517102230929
  0.6088478214537535  0.6225601016135006  0.2641591983282031
 
 -0.15633392E-02 -0.13981871E-02 -0.30219924E-02
  0.68619205E-03 -0.14088071E-02  0.20214401E-02
 -0.20556456E-02 -0.38064196E-02  0.42001269E-02
  0.15214440E-03 -0.53497064E-03 -0.35275442E-02
 -0.26429901E-02 -0.13817085E-02 -0.26172018E-02
  0.14397950E-02 -0.37677819E-02  0.12187141E-01
  0.12394060E-01  0.23312637E-01  0.66077839E-01
 -0.77939302E-02 -0.33051217E-02  0.17359557E-02
 -0.67584737E-02 -0.35225740E-02 -0.16786821E-02
 -0.83465091E-02 -0.16616285E-02 -0.11915093E-02
 -0.13762337E-01  0.24973403E-01  0.71007775E-01
  0.15847047E-02 -0.70691920E-02  0.40741230E-02
 -0.39770784E-02  0.57592278E-03 -0.79729519E-03
 -0.36717237E-02 -0.28002104E-02 -0.55580113E-02
 -0.25017489E-02  0.25494364E-02  0.34626783E-03
 -0.15641090E-02  0.29160316E-02  0.50473929E-02
  0.56945861E-03 -0.31544283E-03 -0.18308273E-02
 -0.16456676E-02 -0.64253471E-03 -0.22753980E-02
 -0.79738347E-03  0.68668754E-03 -0.11115424E-02
 -0.29544536E-02 -0.74991600E-03 -0.45641698E-02
 -0.93701552E-03  0.19301159E-03 -0.23139456E-02
  0.15751186E-03  0.10966250E-02 -0.29146538E-02
 -0.32325738E-03  0.17797339E-02 -0.36270256E-02
  0.33533752E-03  0.44410777E-02  0.18355309E-04
  0.43074122E-02  0.14866486E-02  0.10372736E-02
 -0.12424613E-03 -0.26782062E-01  0.13345945E-01
  0.14977111E-01  0.13351800E-01  0.22074156E-01
  0.21860104E-02 -0.45149972E-02  0.26967234E-01
 -0.18110908E-01  0.54254375E-02  0.12375065E-01
 -0.10004560E-02 -0.66075439E-02  0.49554879E-02
 -0.43080937E-02  0.28764641E-03 -0.16296490E-02
 -0.14486689E-02 -0.13256276E-02 -0.26289790E-02
 -0.18730940E-02 -0.35585927E-03 -0.15101354E-02
 -0.70683691E-02 -0.21872835E-02 -0.26103825E-02
  0.48593896E-02 -0.33729222E-02  0.17830383E-01
 -0.45738540E-01 -0.32279160E-02  0.13222645E-01
 -0.13361262E-01  0.96590782E-03  0.57378434E-01
 -0.61279632E-02 -0.10937295E-02 -0.47309107E-03
 -0.31610898E-02 -0.73087564E-02  0.45998012E-02
 -0.23452664E-01 -0.80071184E-03 -0.49553687E-03
 -0.12607772E-02 -0.10418305E-02 -0.41295519E-02
 -0.79320547E-03 -0.14056277E-02 -0.36404371E-02
 -0.46905545E-02 -0.88451361E-04 -0.21541431E-02
  0.17437234E-02 -0.25739305E-02  0.12257982E-01
 -0.29779545E-01  0.58885244E-01  0.19084008E-01
 -0.35871447E-02 -0.30518710E-02  0.19000876E-02
  0.23947317E-02  0.15598339E-02  0.32212182E-03
  0.30203443E-01  0.14749680E+00  0.21932133E+00
 -0.41769024E-01  0.10497677E-01  0.15288630E+00
  0.14700812E+00 -0.16943855E+00  0.21093654E+00
  0.14392763E+00 -0.16643236E+00  0.40886294E-01
 -0.76042257E-02  0.25838874E-01 -0.14815011E+00
  0.99833132E-02  0.28996463E-01  0.37226114E-01
 -0.10245044E+00  0.76726300E-01 -0.83130314E+00
