Generated by VASPKIT code               
   1.00000000000000     
    12.7690000533999992    0.0000000000000000    0.0000000000000000
    -6.3845000266999996   11.0582784271999994    0.0000000000000000
     0.0000000000000000    0.0000000000000000   18.1282997130999988
   Mo   S    Co   C    H 
    16    31     1     2     6
Direct
  0.0762262277698891  0.1610552020047901  0.1450889931222091
  0.3253811871536886  0.1598507235764361  0.1460450929390065
  0.5736521630076393  0.1570494778063510  0.1436819524065872
  0.8254045013242284  0.1601220444605255  0.1434925776561961
  0.0757303505778645  0.4104338710480317  0.1454712060001858
  0.3281076915333015  0.4112279240153681  0.1476173947704827
  0.5791755426198721  0.4089277209472122  0.1465386422278462
  0.8220178574071079  0.4064304326276774  0.1425177736183000
  0.0711860474132267  0.6579837294306708  0.1446648217875689
  0.3254946628076506  0.6601063842892875  0.1465796800468851
  0.5829740335295783  0.6646388525401226  0.1474640224808995
  0.8306055431920110  0.6648912423829885  0.1323057533508696
  0.0729805816546682  0.9099731459287658  0.1441392962204319
  0.3229334216194406  0.9084476998818732  0.1452814363463194
  0.5740629042351287  0.9100561480181003  0.1439962564379278
  0.8238712956185279  0.9115422970804886  0.1420602061615497
  0.1602064841455032  0.0783873613510734  0.0594570886174580
  0.1568585579494467  0.0752043547228123  0.2310414673395526
  0.4055963718603545  0.0747292763779870  0.0590524997766296
  0.4079569283179647  0.0749779636782616  0.2310100570361198
  0.6579546886105297  0.0754461725831609  0.0574427203324149
  0.6586870541581662  0.0762136662609075  0.2296013227157610
  0.9110540132122158  0.0800123634832157  0.0575312520956830
  0.9081103794723595  0.0767092498598232  0.2293812498238166
  0.1625309801462392  0.3293405192142804  0.0605220585571642
  0.1588378110288060  0.3270175124763482  0.2319038508419170
  0.4107125571803221  0.3283287220842711  0.0612437338209024
  0.4111314427411760  0.3265692173728889  0.2322520377427403
  0.6558565859940286  0.3240166526395473  0.0577639053584153
  0.6588263068728735  0.3204538151023993  0.2300696265135888
  0.9105067511817396  0.3265237663850865  0.0579299722866701
  0.9073654183909272  0.3262426151314144  0.2296403129199048
  0.1595597337258690  0.5772330714134450  0.0601495195840142
  0.1560246421021132  0.5767118480270554  0.2313973542297066
  0.4130114961541716  0.5783455653637845  0.0623645293952439
  0.4131247136693946  0.5792213680233664  0.2321155275510383
  0.6554186652103666  0.5745429973772034  0.0590046012460802
  0.9099765729331973  0.5719230777873932  0.0532272449610362
  0.8921050984367374  0.5730150361825698  0.2272477996898516
  0.1564495596781366  0.8252290883340966  0.0592056281041172
  0.1543635799647935  0.8248709266322117  0.2301806399248329
  0.4058742275454829  0.8245097997801866  0.0594355766121735
  0.4082535943821489  0.8272306322557451  0.2313155004752289
  0.6557031603597452  0.8244528589276481  0.0583070979928225
  0.6616578479423745  0.8332727443114580  0.2302659631798848
  0.9122770813398062  0.8351988190217484  0.0523759261319179
  0.8968312232377385  0.8187093063142252  0.2268983809481583
  0.7304613995293390  0.6129219659172652  0.2505852782974576
  0.7306135818121617  0.5762118329907231  0.3598504625351975
  0.6494993127154236  0.6199427167472894  0.3495691331674546
  0.6962086579188078  0.4795813569063270  0.3678159001127322
  0.8212659942777486  0.6361572944749112  0.3814361969519030
  0.6770907899620493  0.7126131467357141  0.3661334301625308
  0.5522091655021226  0.5568413115146842  0.3542130725856548
  0.6298792259365906  0.6415614946647942  0.2663884407317006
  0.6231465552452723  0.4838773378135516  0.2390480048688924
 
 -0.78572521E-03 -0.31120878E-03  0.11282576E-02
 -0.27561278E-03 -0.67698217E-03  0.33831453E-03
 -0.85108506E-03  0.35496818E-02 -0.14208725E-02
  0.49199939E-04  0.12634000E-02 -0.41896429E-03
  0.43706308E-03 -0.15971037E-02 -0.81335385E-03
 -0.35629770E-02 -0.24759978E-02  0.80102209E-02
  0.56746984E-02 -0.15040250E-02  0.71936370E-02
  0.81362019E-03  0.29827899E-02  0.19486911E-02
  0.24202122E-02 -0.63698823E-03  0.33375372E-02
 -0.16676781E-02 -0.92872538E-03  0.52020677E-02
 -0.18578248E-01  0.30390842E-02  0.84470140E-01
 -0.51130621E-02 -0.15924747E-01  0.48425627E-01
 -0.22746740E-02 -0.16990283E-02  0.48527115E-02
 -0.12013124E-02 -0.18907082E-03 -0.14513338E-02
 -0.89803014E-02  0.88925643E-02  0.12838671E-02
 -0.39040095E-02 -0.24539100E-02  0.12483065E-01
 -0.64502967E-03 -0.45996811E-02 -0.40693003E-02
  0.27163009E-03  0.39534052E-03  0.16230313E-02
 -0.32503294E-03  0.41476672E-03 -0.94045713E-03
  0.98106684E-03 -0.75302854E-03 -0.11498968E-02
  0.28979408E-03  0.32144791E-02 -0.18848267E-02
 -0.35183003E-02  0.75783648E-02 -0.69393311E-03
 -0.20644515E-04 -0.56097220E-02  0.46096810E-02
  0.89918159E-03  0.39214643E-02  0.44825200E-02
  0.17247740E-02 -0.63433229E-03  0.21135031E-03
 -0.38957377E-02 -0.38921064E-02  0.36602343E-02
  0.42732396E-02  0.29598763E-02  0.14128831E-02
 -0.18229994E-03 -0.33193857E-03  0.37359988E-02
 -0.27436719E-02  0.31329242E-02  0.12216242E-02
  0.40608994E-02  0.21891715E-02  0.56932869E-02
 -0.53600189E-03  0.82785966E-03 -0.58516510E-03
  0.98249629E-03 -0.14619951E-03 -0.17219502E-04
  0.13696326E-02 -0.11310431E-02  0.69964805E-03
 -0.61241695E-03 -0.15544601E-02 -0.10742326E-03
  0.14657660E-01  0.57940353E-02  0.26035708E-01
 -0.37025104E-01 -0.54840103E-02  0.28701600E-01
 -0.62668011E-02  0.71854726E-02  0.37644019E-01
 -0.52099236E-01  0.18167449E-01  0.32582898E-01
  0.13788802E-01  0.24421959E-02  0.25240769E-02
 -0.30732419E-02 -0.44136142E-03  0.80044785E-03
  0.16417360E-02  0.58974255E-03  0.13088638E-02
 -0.91118521E-03 -0.25683289E-02 -0.81331699E-03
 -0.40991381E-02  0.21125722E-02  0.12733998E-02
  0.10624824E-01 -0.64421322E-02  0.25051510E-01
 -0.36547480E-01  0.53417844E-01  0.21869111E-01
 -0.45511512E-02 -0.13759108E-01  0.14634127E-01
  0.43599780E-02 -0.23323373E-02  0.32287952E-02
 -0.92782368E-01  0.40364049E-01  0.11852972E+00
 -0.18817861E-02 -0.10605742E-01  0.15340875E+00
  0.13257471E+00 -0.10811565E+00  0.24753387E+00
  0.64299425E-01 -0.49702406E-01  0.22951411E-01
  0.87570015E-01 -0.12224836E-01  0.12930101E-01
  0.50173615E-01  0.21344013E-01 -0.48663201E-01
  0.51921729E-01  0.15185573E-02 -0.75554276E-01
 -0.14992177E+00  0.76582575E-01 -0.88112055E+00
 -0.72434451E-02 -0.14876405E-01  0.40224058E-01
