POSCARMoS21PdDoped                      
   1.00000000000000     
    12.7690000533999992    0.0000000000000000    0.0000000000000000
    -6.3845000266999996   11.0582784271999994    0.0000000000000000
     0.0000000000000000    0.0000000000000000   18.1282997130999988
   Mo   S    Co   C    H 
    16    31     1     2     2
Direct
  0.0802690043110540  0.1626529310401174  0.1425186651235881
  0.3305946129409620  0.1632494162131127  0.1430381524580840
  0.5798637374493781  0.1633473250933835  0.1431096462348035
  0.8296300541230156  0.1626712695126580  0.1425759408978651
  0.0800923384758981  0.4128106272649610  0.1423095276232872
  0.3314850511856856  0.4133889847492269  0.1418929643916171
  0.5822045761344793  0.4167313467983451  0.1424966390436439
  0.8291994273620603  0.4132335642740533  0.1418716742276306
  0.0794949318476753  0.6623666692352250  0.1420534407457932
  0.3303586366316430  0.6624917595127756  0.1421169109269475
  0.5811678727989452  0.6632899635327346  0.1393782083515094
  0.8300250407668837  0.6631127196041556  0.1384788026943899
  0.0791678065956138  0.9123108982294742  0.1425714212968063
  0.3299913261783808  0.9128851235464971  0.1430090843281109
  0.5802200820475826  0.9125486212315658  0.1425565130613239
  0.8289071556553161  0.9109654003483409  0.1412329618808207
  0.1640786467428627  0.0794915999398767  0.0569836880754886
  0.1628782010106447  0.0790792919888173  0.2286551521105103
  0.4135074418541864  0.0797986952258298  0.0572926447873449
  0.4133469388168702  0.0796901977010172  0.2291617835543037
  0.6626841170973167  0.0797081825014233  0.0570121522651481
  0.6633937351204394  0.0792561843677124  0.2287081179482272
  0.9134158453590864  0.0797569121481337  0.0566826016117298
  0.9126969126654412  0.0780973520701706  0.2277228466253081
  0.1636523200555456  0.3293690016432352  0.0565238449227565
  0.1642412562547038  0.3298234963740396  0.2280071469568460
  0.4158861000938477  0.3301634654321264  0.0566893845908414
  0.4162144278266148  0.3329119947196227  0.2277254655069012
  0.6616653129701670  0.3301086129039467  0.0567239673505888
  0.6640674995385389  0.3330282118411134  0.2279265177299611
  0.9130363431481338  0.3292263859830854  0.0565419517132583
  0.9129248907702218  0.3298338383033736  0.2280323789874597
  0.1635213229960563  0.5794573482207455  0.0564181068975597
  0.1633844313042908  0.5793205686316216  0.2281749454877371
  0.4126499837524646  0.5791020522507325  0.0548035402102954
  0.4169340106867170  0.5794600970407375  0.2269221482201037
  0.6630524388798894  0.5789466125315798  0.0552405440499549
  0.9142426316226976  0.5785738066737485  0.0543726711221014
  0.9097468106850422  0.5793631408418863  0.2267500453476200
  0.1634886410760066  0.8298478945735990  0.0569088841633907
  0.1624941593822368  0.8286622562850096  0.2284207911537547
  0.4134627754687641  0.8298733507089374  0.0568941029357550
  0.4133390662870184  0.8287582958228679  0.2284346369172660
  0.6628426184212813  0.8302227790843483  0.0547573142079062
  0.6638471512295453  0.8253963862864939  0.2277354558748732
  0.9146802329164656  0.8307393312847482  0.0544725244057771
  0.9075635970749701  0.8244195122505812  0.2276156968070107
  0.6860214789778725  0.6183799641385860  0.2495019414608223
  0.6315001928015648  0.5177516890309323  0.3384193032899084
  0.6888689684672249  0.6280706664366796  0.3562964327302000
  0.5807415437973871  0.4214363696295162  0.3484969157535966
  0.7288461936987646  0.7050715277152863  0.3930118471706235
 
  0.00000000E+00  0.00000000E+00  0.00000000E+00
  0.00000000E+00  0.00000000E+00  0.00000000E+00
  0.00000000E+00  0.00000000E+00  0.00000000E+00
  0.00000000E+00  0.00000000E+00  0.00000000E+00
  0.00000000E+00  0.00000000E+00  0.00000000E+00
  0.00000000E+00  0.00000000E+00  0.00000000E+00
  0.00000000E+00  0.00000000E+00  0.00000000E+00
  0.00000000E+00  0.00000000E+00  0.00000000E+00
  0.00000000E+00  0.00000000E+00  0.00000000E+00
  0.00000000E+00  0.00000000E+00  0.00000000E+00
  0.00000000E+00  0.00000000E+00  0.00000000E+00
  0.00000000E+00  0.00000000E+00  0.00000000E+00
  0.00000000E+00  0.00000000E+00  0.00000000E+00
  0.00000000E+00  0.00000000E+00  0.00000000E+00
  0.00000000E+00  0.00000000E+00  0.00000000E+00
  0.00000000E+00  0.00000000E+00  0.00000000E+00
  0.00000000E+00  0.00000000E+00  0.00000000E+00
  0.00000000E+00  0.00000000E+00  0.00000000E+00
  0.00000000E+00  0.00000000E+00  0.00000000E+00
  0.00000000E+00  0.00000000E+00  0.00000000E+00
  0.00000000E+00  0.00000000E+00  0.00000000E+00
  0.00000000E+00  0.00000000E+00  0.00000000E+00
  0.00000000E+00  0.00000000E+00  0.00000000E+00
  0.00000000E+00  0.00000000E+00  0.00000000E+00
  0.00000000E+00  0.00000000E+00  0.00000000E+00
  0.00000000E+00  0.00000000E+00  0.00000000E+00
  0.00000000E+00  0.00000000E+00  0.00000000E+00
  0.00000000E+00  0.00000000E+00  0.00000000E+00
  0.00000000E+00  0.00000000E+00  0.00000000E+00
  0.00000000E+00  0.00000000E+00  0.00000000E+00
  0.00000000E+00  0.00000000E+00  0.00000000E+00
  0.00000000E+00  0.00000000E+00  0.00000000E+00
  0.00000000E+00  0.00000000E+00  0.00000000E+00
  0.00000000E+00  0.00000000E+00  0.00000000E+00
  0.00000000E+00  0.00000000E+00  0.00000000E+00
  0.00000000E+00  0.00000000E+00  0.00000000E+00
  0.00000000E+00  0.00000000E+00  0.00000000E+00
  0.00000000E+00  0.00000000E+00  0.00000000E+00
  0.00000000E+00  0.00000000E+00  0.00000000E+00
  0.00000000E+00  0.00000000E+00  0.00000000E+00
  0.00000000E+00  0.00000000E+00  0.00000000E+00
  0.00000000E+00  0.00000000E+00  0.00000000E+00
  0.00000000E+00  0.00000000E+00  0.00000000E+00
  0.00000000E+00  0.00000000E+00  0.00000000E+00
  0.00000000E+00  0.00000000E+00  0.00000000E+00
  0.00000000E+00  0.00000000E+00  0.00000000E+00
  0.00000000E+00  0.00000000E+00  0.00000000E+00
  0.00000000E+00  0.00000000E+00  0.00000000E+00
  0.00000000E+00  0.00000000E+00  0.00000000E+00
  0.00000000E+00  0.00000000E+00  0.00000000E+00
  0.00000000E+00  0.00000000E+00  0.00000000E+00
  0.00000000E+00  0.00000000E+00  0.00000000E+00
