POSCARxPz1                              
   1.00000000000000     
    12.7690000533999992    0.0000000000000000    0.0000000000000000
    -6.3845000266999996   11.0582784271999994    0.0000000000000000
     0.0000000000000000    0.0000000000000000   18.1282997130999988
   Mo   S    Co   C    H 
    16    31     1     2     6
Direct
  0.0823055851921796  0.1642121737780027  0.1456156368735657
  0.3314490344599796  0.1625489510483200  0.1446152232583511
  0.5828089708417520  0.1650035119464023  0.1483557598261248
  0.8322268279045283  0.1643175267366472  0.1477731180290718
  0.0823297333030268  0.4144396315034106  0.1467894995244843
  0.3318106644341526  0.4132735326083374  0.1465262867285902
  0.5813435854381962  0.4124908477101362  0.1448789882880121
  0.8313204150564606  0.4155550714588094  0.1456053305210273
  0.0825383990656657  0.6637478377780630  0.1456059543599517
  0.3330456552781434  0.6638690162211724  0.1480375590836774
  0.5855557771141793  0.6602647712568362  0.1503011060492556
  0.8380878523336417  0.6683443207458585  0.1406068619222120
  0.0841513602842957  0.9153564902686164  0.1435403635421166
  0.3336611794242934  0.9137037050663221  0.1468848206204793
  0.5830798962443826  0.9122019833860509  0.1495584755261185
  0.8333430752268417  0.9140561626866033  0.1463629635150563
  0.1659881880648558  0.0821293574760437  0.0582618053533185
  0.1653947258983300  0.0797346869313177  0.2306202009555931
  0.4181939497096786  0.0800924688014473  0.0607937903634110
  0.4144453832666640  0.0806074388516543  0.2324631861234361
  0.6645127901268535  0.0788355388076422  0.0632344881902918
  0.6663856916106145  0.0813750660775987  0.2343927233340591
  0.9141388010256324  0.0810927081039066  0.0607310820556304
  0.9167597862878282  0.0807996085326170  0.2324630615253959
  0.1655204484153970  0.3316399428458702  0.0603130454279767
  0.1650790975540656  0.3299874410578975  0.2322823613305271
  0.4139927670348562  0.3304376113124919  0.0589387332828068
  0.4121493858627481  0.3257890630364930  0.2306442793287153
  0.6645039119279191  0.3286864868082943  0.0600397594081545
  0.6674460956156688  0.3397341273099695  0.2335444358399244
  0.9149660832165285  0.3302807078237375  0.0613033891628533
  0.9151254979289790  0.3326342984379049  0.2323819855698518
  0.1677660567116172  0.5810610899470959  0.0609873121436184
  0.1642708766615664  0.5806212659110754  0.2328439488534854
  0.4201925817021821  0.5825200603523378  0.0629657743008997
  0.4148471996379895  0.5788580951334890  0.2334858060108692
  0.6661216053461900  0.5803839640280529  0.0612949012503218
  0.9182470253712223  0.5805604538454947  0.0575671615337344
  0.9094015137365714  0.5827003750990096  0.2310559433911898
  0.1685214215063154  0.8303635358509842  0.0596207995494127
  0.1651317629383373  0.8309324107650140  0.2309992637950070
  0.4184306067216660  0.8301988163902760  0.0624046356026887
  0.4153283558660381  0.8301214103092812  0.2343200911528453
  0.6637271079034595  0.8263131504071728  0.0633781636680433
  0.6692851639036898  0.8272781726917908  0.2346943598566816
  0.9179581392706366  0.8356864094897665  0.0568279313195806
  0.9181600867229427  0.8309118130834963  0.2290495818096571
  0.6941175373328113  0.5545949195237861  0.2553552245778292
  0.6074765658407126  0.5344457423118137  0.3474785213008688
  0.7307444238430442  0.6303226691097379  0.3667134269820453
  0.5355711372911233  0.5571966450353950  0.3472705534959172
  0.5774812212854054  0.4425239365876042  0.3673180648469773
  0.7820255287082063  0.6032557626869378  0.4028714271248884
  0.7380999558183923  0.7160286142697990  0.3845423746898336
  0.7925095684254120  0.6671350160971252  0.3135843954873399
  0.5774833723061622  0.5305178346589666  0.2167594523362359
 
  0.00000000E+00  0.00000000E+00  0.00000000E+00
  0.00000000E+00  0.00000000E+00  0.00000000E+00
  0.00000000E+00  0.00000000E+00  0.00000000E+00
  0.00000000E+00  0.00000000E+00  0.00000000E+00
  0.00000000E+00  0.00000000E+00  0.00000000E+00
  0.00000000E+00  0.00000000E+00  0.00000000E+00
  0.00000000E+00  0.00000000E+00  0.00000000E+00
  0.00000000E+00  0.00000000E+00  0.00000000E+00
  0.00000000E+00  0.00000000E+00  0.00000000E+00
  0.00000000E+00  0.00000000E+00  0.00000000E+00
  0.00000000E+00  0.00000000E+00  0.00000000E+00
  0.00000000E+00  0.00000000E+00  0.00000000E+00
  0.00000000E+00  0.00000000E+00  0.00000000E+00
  0.00000000E+00  0.00000000E+00  0.00000000E+00
  0.00000000E+00  0.00000000E+00  0.00000000E+00
  0.00000000E+00  0.00000000E+00  0.00000000E+00
  0.00000000E+00  0.00000000E+00  0.00000000E+00
  0.00000000E+00  0.00000000E+00  0.00000000E+00
  0.00000000E+00  0.00000000E+00  0.00000000E+00
  0.00000000E+00  0.00000000E+00  0.00000000E+00
  0.00000000E+00  0.00000000E+00  0.00000000E+00
  0.00000000E+00  0.00000000E+00  0.00000000E+00
  0.00000000E+00  0.00000000E+00  0.00000000E+00
  0.00000000E+00  0.00000000E+00  0.00000000E+00
  0.00000000E+00  0.00000000E+00  0.00000000E+00
  0.00000000E+00  0.00000000E+00  0.00000000E+00
  0.00000000E+00  0.00000000E+00  0.00000000E+00
  0.00000000E+00  0.00000000E+00  0.00000000E+00
  0.00000000E+00  0.00000000E+00  0.00000000E+00
  0.00000000E+00  0.00000000E+00  0.00000000E+00
  0.00000000E+00  0.00000000E+00  0.00000000E+00
  0.00000000E+00  0.00000000E+00  0.00000000E+00
  0.00000000E+00  0.00000000E+00  0.00000000E+00
  0.00000000E+00  0.00000000E+00  0.00000000E+00
  0.00000000E+00  0.00000000E+00  0.00000000E+00
  0.00000000E+00  0.00000000E+00  0.00000000E+00
  0.00000000E+00  0.00000000E+00  0.00000000E+00
  0.00000000E+00  0.00000000E+00  0.00000000E+00
  0.00000000E+00  0.00000000E+00  0.00000000E+00
  0.00000000E+00  0.00000000E+00  0.00000000E+00
  0.00000000E+00  0.00000000E+00  0.00000000E+00
  0.00000000E+00  0.00000000E+00  0.00000000E+00
  0.00000000E+00  0.00000000E+00  0.00000000E+00
  0.00000000E+00  0.00000000E+00  0.00000000E+00
  0.00000000E+00  0.00000000E+00  0.00000000E+00
  0.00000000E+00  0.00000000E+00  0.00000000E+00
  0.00000000E+00  0.00000000E+00  0.00000000E+00
  0.00000000E+00  0.00000000E+00  0.00000000E+00
  0.00000000E+00  0.00000000E+00  0.00000000E+00
  0.00000000E+00  0.00000000E+00  0.00000000E+00
  0.00000000E+00  0.00000000E+00  0.00000000E+00
  0.00000000E+00  0.00000000E+00  0.00000000E+00
  0.00000000E+00  0.00000000E+00  0.00000000E+00
  0.00000000E+00  0.00000000E+00  0.00000000E+00
  0.00000000E+00  0.00000000E+00  0.00000000E+00
  0.00000000E+00  0.00000000E+00  0.00000000E+00
