POSCARCo                                
   1.00000000000000     
    12.7690000533999992    0.0000000000000000    0.0000000000000000
    -6.3845000266999996   11.0582784271999994    0.0000000000000000
     0.0000000000000000    0.0000000000000000   18.1282997130999988
   Mo   S    Co   C    H 
    16    31     1     2     6
Direct
  0.0781241178659563  0.1586790860376569  0.1452725192793438
  0.3277438396647991  0.1583016117998061  0.1463202620359996
  0.5760697518019792  0.1555124301892582  0.1439369677951486
  0.8275680182477643  0.1579840098435914  0.1436001381251512
  0.0778734163934485  0.4081722299203132  0.1452138414175314
  0.3301315694228240  0.4096148367580646  0.1476493996799797
  0.5832815946357058  0.4076694006451964  0.1478635876265587
  0.8249872214899543  0.4042680776053759  0.1426698404664345
  0.0741410317913938  0.6560871979705077  0.1444603697899665
  0.3271802613048088  0.6580761829361935  0.1459338753930943
  0.5812665295578614  0.6632219715312091  0.1465037431039403
  0.8332716060194612  0.6609487371858471  0.1334908214626829
  0.0750036422191949  0.9075888653189305  0.1444734813711221
  0.3250961933500549  0.9068605419921467  0.1450132303267807
  0.5762303017294026  0.9086487264261697  0.1437121618944794
  0.8253364691131841  0.9090007993585216  0.1425423889015401
  0.1622521829953088  0.0762024762507445  0.0597160603805959
  0.1589890579499671  0.0731877293998367  0.2312318996165892
  0.4079886399965624  0.0736275141939122  0.0591450252530632
  0.4100625820693394  0.0730669387678645  0.2310435559100430
  0.6602829765764607  0.0743155778228543  0.0573878912611485
  0.6607690889358353  0.0742656123361552  0.2296681126676128
  0.9128381734717711  0.0771878053470991  0.0578552414276594
  0.9099903745254336  0.0743982165493573  0.2297051933054331
  0.1645966290126469  0.3267485803587633  0.0605084585010260
  0.1607740200676809  0.3248861313609392  0.2318654686607211
  0.4143250486817426  0.3272651712497734  0.0619989517451653
  0.4139172170063148  0.3253880479177133  0.2324927965786963
  0.6581400845983635  0.3227590067505422  0.0583612581104945
  0.6624174349482524  0.3180879234413128  0.2309029477120608
  0.9126282747708560  0.3240171410806903  0.0577877391905454
  0.9100489503276846  0.3239110660067671  0.2297778556707999
  0.1613178562720200  0.5748499977509611  0.0595971582055716
  0.1586106657700151  0.5746965943069601  0.2310595292789274
  0.4125493668304784  0.5750065223923068  0.0611411810872475
  0.4135015516107184  0.5775264463051459  0.2320353780361386
  0.6578449362686459  0.5728861867598084  0.0604045777826248
  0.9126534806134692  0.5700166211157853  0.0533274407391490
  0.8973279097023569  0.5704789327734532  0.2274740216255676
  0.1584611052082270  0.8236380793439902  0.0590086334327803
  0.1569454108567338  0.8228469333204378  0.2301873184750327
  0.4079960456829290  0.8231893121343539  0.0589305322544459
  0.4101271005625431  0.8253774748850143  0.2308234474773321
  0.6587525168101008  0.8244446195652860  0.0576744457930869
  0.6621087122615519  0.8308351103026973  0.2300709037933228
  0.9133900481286972  0.8317943346160512  0.0533950825341945
  0.8988449766643779  0.8160502459030736  0.2269457490979772
  0.7384510120701544  0.6109960791117058  0.2538944518845925
  0.6501567375992348  0.5995423904054612  0.3540662952822657
  0.7559552710834673  0.5966266906786581  0.3667603604247067
  0.6475272228019759  0.6831990494560166  0.3611151242087708
  0.5622868704774995  0.5165769439698653  0.3548593647060669
  0.7536168488029713  0.5112370835083551  0.3772386549134798
  0.8387596218844525  0.6782627302304860  0.3836157525942335
  0.6289545970493160  0.6309869122262972  0.2365530033453626
  0.6341040354460640  0.4798251705847261  0.2422164523657096
 
  0.00000000E+00  0.00000000E+00  0.00000000E+00
  0.00000000E+00  0.00000000E+00  0.00000000E+00
  0.00000000E+00  0.00000000E+00  0.00000000E+00
  0.00000000E+00  0.00000000E+00  0.00000000E+00
  0.00000000E+00  0.00000000E+00  0.00000000E+00
  0.00000000E+00  0.00000000E+00  0.00000000E+00
  0.00000000E+00  0.00000000E+00  0.00000000E+00
  0.00000000E+00  0.00000000E+00  0.00000000E+00
  0.00000000E+00  0.00000000E+00  0.00000000E+00
  0.00000000E+00  0.00000000E+00  0.00000000E+00
  0.00000000E+00  0.00000000E+00  0.00000000E+00
  0.00000000E+00  0.00000000E+00  0.00000000E+00
  0.00000000E+00  0.00000000E+00  0.00000000E+00
  0.00000000E+00  0.00000000E+00  0.00000000E+00
  0.00000000E+00  0.00000000E+00  0.00000000E+00
  0.00000000E+00  0.00000000E+00  0.00000000E+00
  0.00000000E+00  0.00000000E+00  0.00000000E+00
  0.00000000E+00  0.00000000E+00  0.00000000E+00
  0.00000000E+00  0.00000000E+00  0.00000000E+00
  0.00000000E+00  0.00000000E+00  0.00000000E+00
  0.00000000E+00  0.00000000E+00  0.00000000E+00
  0.00000000E+00  0.00000000E+00  0.00000000E+00
  0.00000000E+00  0.00000000E+00  0.00000000E+00
  0.00000000E+00  0.00000000E+00  0.00000000E+00
  0.00000000E+00  0.00000000E+00  0.00000000E+00
  0.00000000E+00  0.00000000E+00  0.00000000E+00
  0.00000000E+00  0.00000000E+00  0.00000000E+00
  0.00000000E+00  0.00000000E+00  0.00000000E+00
  0.00000000E+00  0.00000000E+00  0.00000000E+00
  0.00000000E+00  0.00000000E+00  0.00000000E+00
  0.00000000E+00  0.00000000E+00  0.00000000E+00
  0.00000000E+00  0.00000000E+00  0.00000000E+00
  0.00000000E+00  0.00000000E+00  0.00000000E+00
  0.00000000E+00  0.00000000E+00  0.00000000E+00
  0.00000000E+00  0.00000000E+00  0.00000000E+00
  0.00000000E+00  0.00000000E+00  0.00000000E+00
  0.00000000E+00  0.00000000E+00  0.00000000E+00
  0.00000000E+00  0.00000000E+00  0.00000000E+00
  0.00000000E+00  0.00000000E+00  0.00000000E+00
  0.00000000E+00  0.00000000E+00  0.00000000E+00
  0.00000000E+00  0.00000000E+00  0.00000000E+00
  0.00000000E+00  0.00000000E+00  0.00000000E+00
  0.00000000E+00  0.00000000E+00  0.00000000E+00
  0.00000000E+00  0.00000000E+00  0.00000000E+00
  0.00000000E+00  0.00000000E+00  0.00000000E+00
  0.00000000E+00  0.00000000E+00  0.00000000E+00
  0.00000000E+00  0.00000000E+00  0.00000000E+00
  0.00000000E+00  0.00000000E+00  0.00000000E+00
  0.00000000E+00  0.00000000E+00  0.00000000E+00
  0.00000000E+00  0.00000000E+00  0.00000000E+00
  0.00000000E+00  0.00000000E+00  0.00000000E+00
  0.00000000E+00  0.00000000E+00  0.00000000E+00
  0.00000000E+00  0.00000000E+00  0.00000000E+00
  0.00000000E+00  0.00000000E+00  0.00000000E+00
  0.00000000E+00  0.00000000E+00  0.00000000E+00
  0.00000000E+00  0.00000000E+00  0.00000000E+00
