POSCARMoS21Pd_                          
   1.00000000000000     
    12.7690000533999992    0.0000000000000000    0.0000000000000000
    -6.3845000266999996   11.0582784271999994    0.0000000000000000
     0.0000000000000000    0.0000000000000000   18.1282997130999988
   Mo   S    Co   C    H 
    16    31     1     2     4
Direct
  0.0818664069462142  0.1665157025473881  0.1433176207518673
  0.3322146703954840  0.1668939030543826  0.1433097365701563
  0.5815677691619126  0.1662465920810402  0.1436544324701329
  0.8312257402068927  0.1660102097527349  0.1434550209829775
  0.0819140546571170  0.4167567734335469  0.1435967994216070
  0.3334667712163802  0.4175173220601323  0.1431003779182909
  0.5848576488893633  0.4181652623363579  0.1402653751405897
  0.8301043675726796  0.4164271675562247  0.1414769014584556
  0.0802307687740567  0.6657274475338661  0.1436578385512130
  0.3324244051247122  0.6663579573602623  0.1443162176136820
  0.5844141605669623  0.6640435868387343  0.1429962793112887
  0.8322150724506735  0.6659728453266439  0.1366483776579572
  0.0807524121393028  0.9160045821697244  0.1428735454236855
  0.3314440077964655  0.9159548665034403  0.1442906327601327
  0.5815052388193483  0.9151344353717497  0.1442010147767315
  0.8306351960724668  0.9151427920439337  0.1421620181172977
  0.1655148564985261  0.0834424959687087  0.0574984120270014
  0.1647309703246438  0.0828172861868528  0.2291623639103634
  0.4147704676530173  0.0822653447983972  0.0580464877123678
  0.4149337932597624  0.0835027263436107  0.2297166262487686
  0.6640287015983147  0.0815553055086435  0.0580553351750893
  0.6651318235897701  0.0828619491033278  0.2297557266459186
  0.9149537924839810  0.0834853785416907  0.0572971683127529
  0.9143925569505336  0.0818598718078026  0.2287236386745884
  0.1657341034794510  0.3337632632030799  0.0576822458680722
  0.1660332922253512  0.3335773319800397  0.2291141208076364
  0.4150055095248057  0.3329315231195256  0.0561546023127626
  0.4201604990485158  0.3372643776418313  0.2274983017987426
  0.6638107639000125  0.3308127155334045  0.0554643780338748
  0.6658872595306904  0.3377169827904453  0.2284562132372929
  0.9153747811992246  0.3325188170826742  0.0573486947486049
  0.9139478040462913  0.3337814971373751  0.2284341267655581
  0.1659467530899500  0.5838884353597549  0.0582261206647647
  0.1643023659172959  0.5828560544349939  0.2297661907030074
  0.4173956996980047  0.5846650100465011  0.0578157056680381
  0.4192196799948469  0.5828588702847877  0.2288470431612203
  0.6644102648890816  0.5825841114827311  0.0547498273960360
  0.9173913666686510  0.5824713504582285  0.0541642828256763
  0.9057398546201787  0.5814843720188873  0.2277838856194195
  0.1651068376448518  0.8325525903779283  0.0580312951888141
  0.1634520813638278  0.8326119364370570  0.2294273957561908
  0.4149590123698229  0.8325932010223706  0.0585559863796609
  0.4151617220006501  0.8326196134487434  0.2303988388863239
  0.6629918132196426  0.8304696162544964  0.0573357758526556
  0.6661287137528226  0.8290355923372225  0.2287311340419639
  0.9167572226236227  0.8364354334289140  0.0539776473182280
  0.9091459897844181  0.8274113617965431  0.2266134680142021
  0.6992460370138456  0.5708349454093730  0.2499022667082520
  0.6144487545962176  0.5854493207923673  0.3475883516910843
  0.7141091900176341  0.5738072587221390  0.3642619965445393
  0.6194975040026219  0.6732970398739248  0.3478721754236059
  0.5234366422509082  0.5066590591132750  0.3485234504682810
  0.7041956709243075  0.4865766450791251  0.3798989875423184
  0.8014074474538616  0.6534491391030736  0.3771863729402169
 
  0.00000000E+00  0.00000000E+00  0.00000000E+00
  0.00000000E+00  0.00000000E+00  0.00000000E+00
  0.00000000E+00  0.00000000E+00  0.00000000E+00
  0.00000000E+00  0.00000000E+00  0.00000000E+00
  0.00000000E+00  0.00000000E+00  0.00000000E+00
  0.00000000E+00  0.00000000E+00  0.00000000E+00
  0.00000000E+00  0.00000000E+00  0.00000000E+00
  0.00000000E+00  0.00000000E+00  0.00000000E+00
  0.00000000E+00  0.00000000E+00  0.00000000E+00
  0.00000000E+00  0.00000000E+00  0.00000000E+00
  0.00000000E+00  0.00000000E+00  0.00000000E+00
  0.00000000E+00  0.00000000E+00  0.00000000E+00
  0.00000000E+00  0.00000000E+00  0.00000000E+00
  0.00000000E+00  0.00000000E+00  0.00000000E+00
  0.00000000E+00  0.00000000E+00  0.00000000E+00
  0.00000000E+00  0.00000000E+00  0.00000000E+00
  0.00000000E+00  0.00000000E+00  0.00000000E+00
  0.00000000E+00  0.00000000E+00  0.00000000E+00
  0.00000000E+00  0.00000000E+00  0.00000000E+00
  0.00000000E+00  0.00000000E+00  0.00000000E+00
  0.00000000E+00  0.00000000E+00  0.00000000E+00
  0.00000000E+00  0.00000000E+00  0.00000000E+00
  0.00000000E+00  0.00000000E+00  0.00000000E+00
  0.00000000E+00  0.00000000E+00  0.00000000E+00
  0.00000000E+00  0.00000000E+00  0.00000000E+00
  0.00000000E+00  0.00000000E+00  0.00000000E+00
  0.00000000E+00  0.00000000E+00  0.00000000E+00
  0.00000000E+00  0.00000000E+00  0.00000000E+00
  0.00000000E+00  0.00000000E+00  0.00000000E+00
  0.00000000E+00  0.00000000E+00  0.00000000E+00
  0.00000000E+00  0.00000000E+00  0.00000000E+00
  0.00000000E+00  0.00000000E+00  0.00000000E+00
  0.00000000E+00  0.00000000E+00  0.00000000E+00
  0.00000000E+00  0.00000000E+00  0.00000000E+00
  0.00000000E+00  0.00000000E+00  0.00000000E+00
  0.00000000E+00  0.00000000E+00  0.00000000E+00
  0.00000000E+00  0.00000000E+00  0.00000000E+00
  0.00000000E+00  0.00000000E+00  0.00000000E+00
  0.00000000E+00  0.00000000E+00  0.00000000E+00
  0.00000000E+00  0.00000000E+00  0.00000000E+00
  0.00000000E+00  0.00000000E+00  0.00000000E+00
  0.00000000E+00  0.00000000E+00  0.00000000E+00
  0.00000000E+00  0.00000000E+00  0.00000000E+00
  0.00000000E+00  0.00000000E+00  0.00000000E+00
  0.00000000E+00  0.00000000E+00  0.00000000E+00
  0.00000000E+00  0.00000000E+00  0.00000000E+00
  0.00000000E+00  0.00000000E+00  0.00000000E+00
  0.00000000E+00  0.00000000E+00  0.00000000E+00
  0.00000000E+00  0.00000000E+00  0.00000000E+00
  0.00000000E+00  0.00000000E+00  0.00000000E+00
  0.00000000E+00  0.00000000E+00  0.00000000E+00
  0.00000000E+00  0.00000000E+00  0.00000000E+00
  0.00000000E+00  0.00000000E+00  0.00000000E+00
  0.00000000E+00  0.00000000E+00  0.00000000E+00
