POSCAR1                                 
   1.00000000000000     
    12.7690000533999992    0.0000000000000000    0.0000000000000000
    -6.3845000266999996   11.0582784271999994    0.0000000000000000
     0.0000000000000000    0.0000000000000000   18.1282997130999988
   Mo   S    Ir   C    H 
    16    31     1     2     6
Direct
  0.0775017097350049  0.1558522451937768  0.1407929058122032
  0.3285137849536394  0.1568493419911051  0.1423309980850940
  0.5766461708571162  0.1547455535858715  0.1426652832629919
  0.8267119224572133  0.1551035302026448  0.1414484937339188
  0.0766058576565308  0.4053724899331863  0.1409782834618759
  0.3269668322895035  0.4054238041188106  0.1400122690099679
  0.5788255371953033  0.4109640088444670  0.1445906085552779
  0.8264492427713320  0.4056294504853551  0.1429068590680937
  0.0770714701042372  0.6556449178843138  0.1413842310679135
  0.3261448145785645  0.6548662216137611  0.1396243180029079
  0.5739215482053893  0.6564207229128957  0.1337688491943499
  0.8267357536335334  0.6577220695023507  0.1419950590418426
  0.0786940592676873  0.9068360772111979  0.1411456223962260
  0.3275991736183239  0.9058010330328081  0.1417522636787447
  0.5776252130907950  0.9039008763478701  0.1413036267764758
  0.8281340133388227  0.9050673730229596  0.1391997554516059
  0.1629711626619829  0.0738131358198808  0.0555182194356746
  0.1607320263959285  0.0732652681499279  0.2273545555942514
  0.4113108958815552  0.0732166928618065  0.0563615135264223
  0.4100716826342280  0.0718191144937944  0.2284527613739404
  0.6594799387042997  0.0718305400717528  0.0561557240815908
  0.6604543844534709  0.0699631493584007  0.2276740363625184
  0.9109511340403618  0.0734943905609516  0.0547069043792237
  0.9103539688649382  0.0709947957982693  0.2261438227527167
  0.1595211578889347  0.3217467874453092  0.0546411651450573
  0.1608141649608276  0.3225442262519457  0.2264481108967651
  0.4154395264236461  0.3244481718756256  0.0567257730313845
  0.4109457470653030  0.3255720491988843  0.2280233152325851
  0.6586390406962587  0.3238923514888454  0.0582365740936900
  0.6604632567667027  0.3215251082604967  0.2284860135715474
  0.9087607534986966  0.3223415551975428  0.0559559936461777
  0.9107179485232513  0.3215560872740003  0.2277301177910827
  0.1584651126637100  0.5717373446541787  0.0547574850372562
  0.1609481828908553  0.5720823147795463  0.2266582500255874
  0.4050316926110865  0.5692571911746179  0.0508375657947688
  0.4129589593755660  0.5721529075330107  0.2238507057912007
  0.6616847396062647  0.5719488268890280  0.0555176427468881
  0.9089331716201682  0.5719989291756161  0.0562147737450465
  0.9096379749226980  0.5733294418582437  0.2272569214016302
  0.1612534874154130  0.8225499791585363  0.0555663492476162
  0.1606894720284092  0.8223850128527009  0.2273667433373134
  0.4112603751092705  0.8233910831881821  0.0551966367820678
  0.4103367722368764  0.8204019000504356  0.2265976559790949
  0.6612498293502787  0.8250965516063015  0.0515892010985441
  0.6628005759133399  0.8135498688202806  0.2257330563312548
  0.9125296631200883  0.8220136863691360  0.0544387361205446
  0.9104325651807285  0.8237340942042737  0.2264609616358765
  0.6639929709188315  0.6030054892477426  0.2492024106733497
  0.6590137414160465  0.6042930840726812  0.3652103159760823
  0.7847344096157842  0.6762124329828566  0.3984280333252235
  0.6040818376888595  0.6479258579630864  0.3745453680172679
  0.6094843332206904  0.5119129538938852  0.3873607623804535
  0.7788136754275889  0.6747694523676039  0.4592846098392945
  0.8314962717183533  0.7714387682760783  0.3810997759342628
  0.6582803573176369  0.4830007359231602  0.2741470144809693
  0.8421758944180693  0.6377188159679918  0.3835749427842844
 
  0.00000000E+00  0.00000000E+00  0.00000000E+00
  0.00000000E+00  0.00000000E+00  0.00000000E+00
  0.00000000E+00  0.00000000E+00  0.00000000E+00
  0.00000000E+00  0.00000000E+00  0.00000000E+00
  0.00000000E+00  0.00000000E+00  0.00000000E+00
  0.00000000E+00  0.00000000E+00  0.00000000E+00
  0.00000000E+00  0.00000000E+00  0.00000000E+00
  0.00000000E+00  0.00000000E+00  0.00000000E+00
  0.00000000E+00  0.00000000E+00  0.00000000E+00
  0.00000000E+00  0.00000000E+00  0.00000000E+00
  0.00000000E+00  0.00000000E+00  0.00000000E+00
  0.00000000E+00  0.00000000E+00  0.00000000E+00
  0.00000000E+00  0.00000000E+00  0.00000000E+00
  0.00000000E+00  0.00000000E+00  0.00000000E+00
  0.00000000E+00  0.00000000E+00  0.00000000E+00
  0.00000000E+00  0.00000000E+00  0.00000000E+00
  0.00000000E+00  0.00000000E+00  0.00000000E+00
  0.00000000E+00  0.00000000E+00  0.00000000E+00
  0.00000000E+00  0.00000000E+00  0.00000000E+00
  0.00000000E+00  0.00000000E+00  0.00000000E+00
  0.00000000E+00  0.00000000E+00  0.00000000E+00
  0.00000000E+00  0.00000000E+00  0.00000000E+00
  0.00000000E+00  0.00000000E+00  0.00000000E+00
  0.00000000E+00  0.00000000E+00  0.00000000E+00
  0.00000000E+00  0.00000000E+00  0.00000000E+00
  0.00000000E+00  0.00000000E+00  0.00000000E+00
  0.00000000E+00  0.00000000E+00  0.00000000E+00
  0.00000000E+00  0.00000000E+00  0.00000000E+00
  0.00000000E+00  0.00000000E+00  0.00000000E+00
  0.00000000E+00  0.00000000E+00  0.00000000E+00
  0.00000000E+00  0.00000000E+00  0.00000000E+00
  0.00000000E+00  0.00000000E+00  0.00000000E+00
  0.00000000E+00  0.00000000E+00  0.00000000E+00
  0.00000000E+00  0.00000000E+00  0.00000000E+00
  0.00000000E+00  0.00000000E+00  0.00000000E+00
  0.00000000E+00  0.00000000E+00  0.00000000E+00
  0.00000000E+00  0.00000000E+00  0.00000000E+00
  0.00000000E+00  0.00000000E+00  0.00000000E+00
  0.00000000E+00  0.00000000E+00  0.00000000E+00
  0.00000000E+00  0.00000000E+00  0.00000000E+00
  0.00000000E+00  0.00000000E+00  0.00000000E+00
  0.00000000E+00  0.00000000E+00  0.00000000E+00
  0.00000000E+00  0.00000000E+00  0.00000000E+00
  0.00000000E+00  0.00000000E+00  0.00000000E+00
  0.00000000E+00  0.00000000E+00  0.00000000E+00
  0.00000000E+00  0.00000000E+00  0.00000000E+00
  0.00000000E+00  0.00000000E+00  0.00000000E+00
  0.00000000E+00  0.00000000E+00  0.00000000E+00
  0.00000000E+00  0.00000000E+00  0.00000000E+00
  0.00000000E+00  0.00000000E+00  0.00000000E+00
  0.00000000E+00  0.00000000E+00  0.00000000E+00
  0.00000000E+00  0.00000000E+00  0.00000000E+00
  0.00000000E+00  0.00000000E+00  0.00000000E+00
  0.00000000E+00  0.00000000E+00  0.00000000E+00
  0.00000000E+00  0.00000000E+00  0.00000000E+00
  0.00000000E+00  0.00000000E+00  0.00000000E+00
