Generated by VASPKIT code               
   1.00000000000000     
    12.7690000533999992    0.0000000000000000    0.0000000000000000
    -6.3845000266999996   11.0582784271999994    0.0000000000000000
     0.0000000000000000    0.0000000000000000   18.1282997130999988
   Mo   S    Ir   C    H 
    16    31     1     2     4
Direct
  0.0844420383509677  0.1679302294480071  0.1414707637738652
  0.3357662353299991  0.1700285467273578  0.1414499469501191
  0.5860865535361578  0.1698008088393161  0.1408604237880713
  0.8345151168455635  0.1676529006223721  0.1412657182588248
  0.0846044761997364  0.4182252000783659  0.1401808576700108
  0.3341710829792692  0.4200949947375836  0.1396673588670124
  0.5861829482884010  0.4174424031756824  0.1360136795327510
  0.8361717106753306  0.4188956787841621  0.1398722425694564
  0.0854780984016946  0.6689761951345438  0.1409500157516113
  0.3340621344072458  0.6692309866033532  0.1404283316796223
  0.5828749605754416  0.6657623328528761  0.1425614101157536
  0.8302742471864336  0.6620124902838964  0.1449090511641484
  0.0844391586038552  0.9177267114042534  0.1426843132516435
  0.3349444239247618  0.9195005205221152  0.1416148380028843
  0.5842817579319192  0.9182225396457014  0.1420838785367231
  0.8331899902294950  0.9163151008787535  0.1434971635228313
  0.1676854333507201  0.0838234716090793  0.0562104615587343
  0.1691680964159355  0.0863980201452150  0.2276012714086838
  0.4182531811055386  0.0861855020938408  0.0556461147954711
  0.4196210208189017  0.0871737220583564  0.2270532468512528
  0.6675984551566179  0.0839442737069554  0.0556905205239083
  0.6683791578847369  0.0863976978616216  0.2274722987550434
  0.9167106206154693  0.0818446739092056  0.0563224550847750
  0.9181712617391602  0.0853622748730688  0.2278495225436425
  0.1667663791323103  0.3337485901113514  0.0544620802228943
  0.1681350440807436  0.3357450288134372  0.2261968652144923
  0.4158008416914331  0.3344723034915851  0.0528734856924110
  0.4233541547353963  0.3432606987250788  0.2250199815126534
  0.6698893026785397  0.3336788559795786  0.0522370983577100
  0.6716799606916292  0.3433020335740899  0.2260377132468765
  0.9181495537666637  0.3335431172981000  0.0543373172888404
  0.9186071191815910  0.3351211133471466  0.2262175971601418
  0.1677231812506989  0.5855893881833872  0.0543458691740658
  0.1679122896828139  0.5845985570409566  0.2264313439321848
  0.4196786179056658  0.5874083074007147  0.0548468548553049
  0.4154413585194677  0.5845571587516146  0.2263743104221030
  0.6688477292805115  0.5867450801878917  0.0567312385989305
  0.9170899168769164  0.5873227500731437  0.0559473078576956
  0.9202793194895968  0.5822316580002389  0.2273869014674704
  0.1678816185611935  0.8362518901677684  0.0558104735383312
  0.1686920653855546  0.8350119238485348  0.2278161173030685
  0.4186050949200159  0.8367028744805988  0.0554659765036317
  0.4172436680262679  0.8351665981974907  0.2272943620696970
  0.6669415666528713  0.8326572635331025  0.0572393243160887
  0.6662217126302069  0.8327916252862613  0.2284491285196645
  0.9149503451044402  0.8302573714270053  0.0586539332298989
  0.9173451460265641  0.8336555676171531  0.2288010371671002
  0.6462312133710193  0.5428093783173836  0.2603112332672545
  0.6389613671726064  0.4961674223205371  0.3703193258034010
  0.6004541508141600  0.5719278938387427  0.3716843851257204
  0.6569071274909468  0.4348053758595006  0.4020207968259201
  0.5622401030045685  0.6166683105415000  0.4035746893427773
  0.7791810281810045  0.6455119923814540  0.2736035415465895
  0.6238796494523549  0.6448542419955179  0.3016052957941213
 
  0.21417982E-02 -0.75564149E-03  0.71494452E-03
  0.36350960E-02  0.24460771E-02 -0.14553790E-03
  0.13185230E-01 -0.79883309E-02 -0.11577184E-01
  0.31066642E-02 -0.36717622E-02 -0.10357203E-02
  0.20433930E-02 -0.11581531E-02 -0.15311066E-02
 -0.36276951E-02  0.54044280E-02 -0.25139782E-02
  0.19184998E-01 -0.30502718E-01 -0.47284921E-01
  0.11328552E-01 -0.29294856E-02 -0.93830134E-02
  0.98683699E-02  0.85953060E-04 -0.59276272E-02
  0.40772142E-02 -0.50255551E-03  0.12327567E-02
  0.81322742E-02 -0.22877411E-01  0.34736176E-02
  0.19482449E-01 -0.79158844E-02 -0.12162617E-01
  0.15854157E-02 -0.17509073E-02  0.73238341E-03
  0.15543837E-02  0.56548033E-03 -0.11044956E-02
  0.64930638E-02 -0.64574275E-02  0.29264302E-02
  0.38241795E-02 -0.21798827E-02  0.99150473E-03
  0.17531932E-02 -0.63693171E-03  0.21911792E-02
  0.31457858E-02  0.86176422E-04 -0.39635247E-03
 -0.19556347E-02 -0.16054842E-02 -0.68041183E-02
  0.67295676E-02  0.42413911E-02 -0.27646938E-02
  0.82250881E-02 -0.10141309E-01 -0.33095524E-02
  0.28339869E-02 -0.20179817E-02 -0.25077355E-04
  0.25015779E-02 -0.19318911E-02  0.40806995E-03
  0.18762136E-02 -0.12519960E-02  0.93339822E-03
 -0.24649040E-03 -0.17501476E-02 -0.92782372E-03
  0.18651000E-03 -0.16460617E-03 -0.44428944E-03
 -0.90494729E-02 -0.67113075E-02 -0.14168300E-01
  0.94569001E-02  0.14768934E-01 -0.39911262E-02
  0.30695272E-01 -0.12546317E-01 -0.26414847E-01
  0.58120969E-02 -0.49042533E-02 -0.21165314E-01
  0.78104835E-02 -0.57955059E-02 -0.49812403E-02
  0.45230234E-03 -0.13084751E-02 -0.13958438E-02
  0.58635625E-02 -0.20631010E-02 -0.25512068E-02
  0.30427601E-02 -0.87094180E-04 -0.76918559E-03
  0.74936594E-03  0.72613813E-03 -0.76787425E-03
  0.54612787E-02 -0.18388653E-02  0.52625649E-02
  0.12013935E-01 -0.38830341E-02 -0.16768718E-01
  0.95330303E-02 -0.10888647E-02 -0.84789975E-02
  0.18368202E-01  0.12972840E-03 -0.10631443E-01
  0.17849624E-02  0.18717224E-02 -0.17234528E-02
  0.18805329E-02 -0.10349291E-02 -0.81949265E-03
  0.30053450E-02 -0.28688940E-03  0.20186205E-02
  0.16041310E-02  0.12147049E-03  0.10483318E-02
  0.61084392E-02 -0.39769416E-02  0.21776691E-02
  0.12149886E-01 -0.23292579E-01  0.11052040E-02
  0.30865784E-02  0.92678935E-05 -0.52169823E-03
  0.11015068E-02 -0.59253982E-02 -0.13067321E-02
  0.75643343E-01 -0.10283456E+00 -0.22205441E+00
 -0.53960129E-01  0.18671173E+00 -0.18962436E+00
 -0.59585654E-01  0.27750864E+00 -0.16129337E+00
 -0.16188600E+00  0.19026888E+00 -0.13069667E-01
 -0.45762231E-01 -0.30245257E-01  0.14625921E+00
  0.45424532E-02 -0.43547531E-01 -0.92655557E-01
 -0.20505134E-01 -0.32548615E+00  0.73423828E+00
