Generated by VASPKIT code               
   1.00000000000000     
    12.7690000533999992    0.0000000000000000    0.0000000000000000
    -6.3845000266999996   11.0582784271999994    0.0000000000000000
     0.0000000000000000    0.0000000000000000   18.1282997130999988
   Mo   S    Ir   C    H 
    16    31     1     2     6
Direct
  0.0752628456656877  0.1582038999914469  0.1416458325984729
  0.3251140207882337  0.1577685374842385  0.1429009551824739
  0.5733824470852520  0.1561584820842752  0.1407137460600027
  0.8247468229014968  0.1578826938817990  0.1400199631784971
  0.0754309685938178  0.4079150101993673  0.1414976365721137
  0.3271656297636480  0.4093195839356293  0.1438484430008446
  0.5816381266519227  0.4115627240605851  0.1442957036957303
  0.8230599609147867  0.4051116111635315  0.1392586024521735
  0.0720861819193542  0.6553967568290623  0.1410547246268340
  0.3248914865494247  0.6580787096336377  0.1425456736960122
  0.5796049502371876  0.6609617387899464  0.1425538132144568
  0.8269489643703513  0.6577236040838748  0.1325367570939358
  0.0719937464130080  0.9063627829206389  0.1416443387919387
  0.3227812338467915  0.9069591231730090  0.1419028564935836
  0.5733457723268126  0.9083126137565514  0.1403111500419001
  0.8225112782090473  0.9090169338819007  0.1390062150905903
  0.1591663673678736  0.0746243236564398  0.0565293261222155
  0.1563051955831276  0.0730926034009220  0.2278409670074760
  0.4057132395362610  0.0735585625005889  0.0558651818441120
  0.4077343680295251  0.0735479902328815  0.2279717920765236
  0.6571871536320509  0.0743574511160480  0.0541340811439524
  0.6581828361967308  0.0743846538369352  0.2262948118696235
  0.9099637502584097  0.0768068185778174  0.0541456285945161
  0.9072291916266694  0.0744962448775215  0.2260831504833127
  0.1617050222550655  0.3260628266161139  0.0566278527981096
  0.1580230682227904  0.3245552150195587  0.2281265037588032
  0.4125525105077908  0.3272056017729316  0.0588406265059607
  0.4108384984557243  0.3256484326162772  0.2286751821407703
  0.6548352959334365  0.3240758062526927  0.0553756751751715
  0.6600909706483642  0.3210555659099256  0.2270554382376617
  0.9098746538815510  0.3240654781154731  0.0541575736799812
  0.9075239218488410  0.3238227184595037  0.2260932624777869
  0.1592495692447365  0.5747753609134592  0.0560901833237318
  0.1561540408356962  0.5738519703334884  0.2278054457974369
  0.4110909567279939  0.5757351514418674  0.0578581137793157
  0.4120856604050096  0.5769554346078077  0.2284092713296731
  0.6555847894242408  0.5730133850355231  0.0554849448660183
  0.9097814826735147  0.5710687040295245  0.0509096753008124
  0.8952601585505946  0.5696375445186476  0.2254159265871453
  0.1560009038377927  0.8234501113427487  0.0560582257582666
  0.1546591389991872  0.8221080308926162  0.2271343280675494
  0.4054422681935334  0.8231810949939923  0.0556883243662561
  0.4077564499729210  0.8252317472880975  0.2275807478951902
  0.6551247081543674  0.8228750944077824  0.0545194346394013
  0.6590166437303893  0.8284874290743780  0.2262324852473998
  0.9094438918557757  0.8289881551245462  0.0513563506274990
  0.8960035647783111  0.8170598575555560  0.2247460007800924
  0.7110589907423326  0.6017171955366727  0.2575470691555366
  0.7421661537365800  0.5941572118563500  0.3740296614180881
  0.6627111607697928  0.6434936818909150  0.3709190088440571
  0.7073049028697831  0.5018551552390530  0.3939109613731722
  0.8380641261226296  0.6555441465223372  0.3851752009531157
  0.7005735876156340  0.7406574324030449  0.3789030050279905
  0.5701447783498621  0.5883841174030916  0.3915018052913866
  0.6122213597061922  0.6324076690188111  0.2965256570952122
  0.6046539319303278  0.4700508857333016  0.2728715351881730
 
  0.40478678E-02 -0.82010694E-03  0.68312488E-03
  0.38515743E-02 -0.16704969E-02  0.14494927E-02
  0.40861286E-02 -0.93869850E-02 -0.32308265E-02
  0.38078684E-02 -0.19436619E-02 -0.28419242E-04
  0.50386841E-02  0.28077493E-03 -0.61584631E-04
  0.63773487E-02 -0.41494107E-02 -0.21425107E-03
  0.42144889E-02 -0.57396165E-02 -0.12646506E-02
  0.52466491E-02 -0.71638048E-02 -0.70538095E-02
  0.12216083E-01 -0.98503055E-02 -0.10981920E-01
  0.12659070E-01 -0.44185724E-02  0.45810186E-02
  0.34509259E-01 -0.71652301E-02 -0.73914437E-02
  0.29666148E-01  0.11745282E-01 -0.52576532E-01
  0.15712271E-02 -0.40832165E-03 -0.79679296E-02
  0.35372718E-02 -0.24352809E-02 -0.11067561E-02
  0.86782671E-02 -0.82321290E-02  0.23374060E-02
  0.47658552E-02  0.74882865E-03 -0.91225810E-02
  0.32164505E-02  0.26386706E-02 -0.42495143E-03
  0.30638154E-02 -0.39655457E-02 -0.51617692E-03
  0.15381840E-02 -0.29650973E-02 -0.17457609E-02
  0.24603307E-02 -0.30603343E-02  0.29620773E-03
  0.51126112E-02 -0.62639468E-02  0.81507101E-03
  0.41222155E-02 -0.50950124E-02  0.15660340E-04
  0.32265186E-02  0.29656955E-02 -0.18936475E-02
  0.27291639E-02 -0.24173650E-02 -0.61317655E-03
  0.31570667E-02 -0.83523503E-03  0.79511274E-03
  0.27609318E-02  0.12846242E-03  0.69072096E-03
  0.62915551E-02 -0.37144266E-02  0.26751401E-02
  0.15765668E-02 -0.13092419E-02  0.18275313E-02
  0.19754228E-02 -0.60789834E-02 -0.32183241E-02
  0.66524168E-02 -0.16249559E-01 -0.13140677E-01
  0.78674931E-02 -0.44935265E-02 -0.33379315E-02
  0.16883288E-02  0.11136513E-02 -0.67276883E-03
  0.13170719E-01 -0.17961672E-02 -0.17143553E-02
  0.24379126E-02 -0.12540100E-02  0.10621251E-02
  0.91342490E-02 -0.34417502E-02  0.10649396E-02
  0.42879080E-01 -0.70398697E-02  0.42081470E-04
  0.18590658E-01 -0.12540920E-01 -0.19890497E-01
  0.21658730E-01 -0.15470916E-01 -0.21728030E-01
 -0.22370787E-01 -0.38482680E-02 -0.16380399E-01
  0.61367411E-02  0.46001202E-03 -0.49611632E-02
  0.23803466E-02 -0.10099189E-01 -0.60703599E-02
  0.61493133E-02 -0.34847587E-02  0.36622433E-02
  0.38097642E-02 -0.28755156E-02  0.16120899E-02
  0.68584431E-02 -0.20329246E-03 -0.90963239E-02
  0.19521314E-01 -0.16473517E-01 -0.19995506E-02
  0.56631781E-02  0.13556522E-01 -0.29256386E-01
  0.79629559E-02 -0.31956454E-02 -0.11105569E-01
  0.97531987E-01 -0.16002431E-01 -0.14606343E+00
 -0.86248968E-01 -0.89238242E-02 -0.22457479E+00
 -0.22367787E+00 -0.14313173E-01 -0.22446144E+00
 -0.78359657E-01  0.44688907E-01 -0.52208395E-01
 -0.14854543E+00  0.26048941E-01 -0.22023234E-01
 -0.98920919E-01 -0.27129981E-01  0.42410802E-01
 -0.63456085E-01 -0.14588896E-01  0.14561154E+00
  0.20191322E+00  0.18816351E+00  0.79763816E+00
  0.54113341E-01 -0.99872139E-02 -0.91086202E-01
