POSCAR1Pd_                              
   1.00000000000000     
    12.7690000533999992    0.0000000000000000    0.0000000000000000
    -6.3845000266999996   11.0582784271999994    0.0000000000000000
     0.0000000000000000    0.0000000000000000   18.1282997130999988
   Mo   S    Ir   C    H 
    16    31     1     2     4
Direct
  0.0880109976368203  0.1644097937753911  0.1418819829379964
  0.3390473221006303  0.1655036635652615  0.1430229049201764
  0.5872427415530199  0.1637407549852056  0.1429994365463894
  0.8372495439878305  0.1639444443014349  0.1421990924328021
  0.0870950340505161  0.4139414296178245  0.1416835999645550
  0.3376554335821674  0.4143008544963128  0.1408486651449417
  0.5895688040779433  0.4197387418223222  0.1450188917924932
  0.8370600139617211  0.4144301187782005  0.1431446692424675
  0.0876200426704200  0.6641711381101361  0.1419292763223655
  0.3367257146362259  0.6636604477412686  0.1402551195908157
  0.5846609016852355  0.6654534164448063  0.1349428012671345
  0.8372920681605659  0.6659403164802169  0.1424321041655479
  0.0889295792940538  0.9151553677771030  0.1422077524957319
  0.3380055262839747  0.9144790676319644  0.1422806918140146
  0.5880834782428821  0.9130827861345918  0.1417933013730320
  0.8383726769185026  0.9137083281671531  0.1403802147735028
  0.1731131772721878  0.0821516084070077  0.0565409662992480
  0.1714612107778576  0.0817027241112448  0.2282857733807075
  0.4215946743498423  0.0819417230759069  0.0568640431264158
  0.4208616527360258  0.0805408614190861  0.2288469352988837
  0.6703479738990219  0.0809716331780507  0.0566264025099772
  0.6707612931716612  0.0790958190423878  0.2282044850388987
  0.9215721271770191  0.0820778341062898  0.0557576462892427
  0.9207131161835186  0.0799042748866842  0.2272085023314349
  0.1700856508040010  0.3302088099360248  0.0555312982484641
  0.1714476523265206  0.3313061921674556  0.2273497391935532
  0.4257491083666020  0.3331262140025052  0.0573788766595840
  0.4218314933301950  0.3343905674008304  0.2285732068151733
  0.6691703077103264  0.3327430241158155  0.0584046889469930
  0.6712101381569469  0.3304971974224917  0.2287350024636534
  0.9194041588173751  0.3309142725101050  0.0564304499982546
  0.9211095498864810  0.3305410496207526  0.2282581231745963
  0.1690560622906944  0.5802309406965744  0.0553791447292120
  0.1715361431716046  0.5806835548865177  0.2273422895811117
  0.4159265785100809  0.5781317030712061  0.0517155293434561
  0.4232530074708571  0.5811572816807345  0.2246970844459128
  0.6721468435823956  0.5809396868226118  0.0561728732818926
  0.9197207342523017  0.5808921794727002  0.0564765736779123
  0.9203901800563483  0.5815475040128012  0.2277441459497838
  0.1714139432120801  0.8312091298639115  0.0562576219618392
  0.1713062709222196  0.8306633346845911  0.2281429216589082
  0.4216021043282215  0.8321503089329179  0.0557028858807879
  0.4208391024831786  0.8294199030123793  0.2271973095982476
  0.6719153674096967  0.8338659660463070  0.0525203996724654
  0.6724242657515158  0.8230912798624381  0.2264418843194393
  0.9229148480394391  0.8309767408896522  0.0554825116434124
  0.9201767791299067  0.8315353288917968  0.2277481855040110
  0.6766219099244991  0.6118601334421243  0.2502643715590993
  0.5823532170851824  0.5551853408099352  0.4059650949078543
  0.6780444424191688  0.6176543790631731  0.3619297515368765
  0.5864112399844316  0.5758615697888420  0.4649540058170250
  0.7653701818453269  0.6872742554007307  0.3846758537698986
  0.4955978891567697  0.4829030221553611  0.3852621073688560
  0.6682420051660471  0.4912498512809291  0.2770882692329719
 
  0.00000000E+00  0.00000000E+00  0.00000000E+00
  0.00000000E+00  0.00000000E+00  0.00000000E+00
  0.00000000E+00  0.00000000E+00  0.00000000E+00
  0.00000000E+00  0.00000000E+00  0.00000000E+00
  0.00000000E+00  0.00000000E+00  0.00000000E+00
  0.00000000E+00  0.00000000E+00  0.00000000E+00
  0.00000000E+00  0.00000000E+00  0.00000000E+00
  0.00000000E+00  0.00000000E+00  0.00000000E+00
  0.00000000E+00  0.00000000E+00  0.00000000E+00
  0.00000000E+00  0.00000000E+00  0.00000000E+00
  0.00000000E+00  0.00000000E+00  0.00000000E+00
  0.00000000E+00  0.00000000E+00  0.00000000E+00
  0.00000000E+00  0.00000000E+00  0.00000000E+00
  0.00000000E+00  0.00000000E+00  0.00000000E+00
  0.00000000E+00  0.00000000E+00  0.00000000E+00
  0.00000000E+00  0.00000000E+00  0.00000000E+00
  0.00000000E+00  0.00000000E+00  0.00000000E+00
  0.00000000E+00  0.00000000E+00  0.00000000E+00
  0.00000000E+00  0.00000000E+00  0.00000000E+00
  0.00000000E+00  0.00000000E+00  0.00000000E+00
  0.00000000E+00  0.00000000E+00  0.00000000E+00
  0.00000000E+00  0.00000000E+00  0.00000000E+00
  0.00000000E+00  0.00000000E+00  0.00000000E+00
  0.00000000E+00  0.00000000E+00  0.00000000E+00
  0.00000000E+00  0.00000000E+00  0.00000000E+00
  0.00000000E+00  0.00000000E+00  0.00000000E+00
  0.00000000E+00  0.00000000E+00  0.00000000E+00
  0.00000000E+00  0.00000000E+00  0.00000000E+00
  0.00000000E+00  0.00000000E+00  0.00000000E+00
  0.00000000E+00  0.00000000E+00  0.00000000E+00
  0.00000000E+00  0.00000000E+00  0.00000000E+00
  0.00000000E+00  0.00000000E+00  0.00000000E+00
  0.00000000E+00  0.00000000E+00  0.00000000E+00
  0.00000000E+00  0.00000000E+00  0.00000000E+00
  0.00000000E+00  0.00000000E+00  0.00000000E+00
  0.00000000E+00  0.00000000E+00  0.00000000E+00
  0.00000000E+00  0.00000000E+00  0.00000000E+00
  0.00000000E+00  0.00000000E+00  0.00000000E+00
  0.00000000E+00  0.00000000E+00  0.00000000E+00
  0.00000000E+00  0.00000000E+00  0.00000000E+00
  0.00000000E+00  0.00000000E+00  0.00000000E+00
  0.00000000E+00  0.00000000E+00  0.00000000E+00
  0.00000000E+00  0.00000000E+00  0.00000000E+00
  0.00000000E+00  0.00000000E+00  0.00000000E+00
  0.00000000E+00  0.00000000E+00  0.00000000E+00
  0.00000000E+00  0.00000000E+00  0.00000000E+00
  0.00000000E+00  0.00000000E+00  0.00000000E+00
  0.00000000E+00  0.00000000E+00  0.00000000E+00
  0.00000000E+00  0.00000000E+00  0.00000000E+00
  0.00000000E+00  0.00000000E+00  0.00000000E+00
  0.00000000E+00  0.00000000E+00  0.00000000E+00
  0.00000000E+00  0.00000000E+00  0.00000000E+00
  0.00000000E+00  0.00000000E+00  0.00000000E+00
  0.00000000E+00  0.00000000E+00  0.00000000E+00
