CONTCARIS2                              
   1.00000000000000     
    12.7690000533999992    0.0000000000000000    0.0000000000000000
    -6.3845000266999996   11.0582784271999994    0.0000000000000000
     0.0000000000000000    0.0000000000000000   18.1282997130999988
   Mo   S    Ir   C    H 
    16    31     1     2     4
Direct
  0.0806665120093305  0.1693128890005534  0.1406643303660568
  0.3314740390035588  0.1711523227602934  0.1403306313063715
  0.5820974941023976  0.1712858148037434  0.1401048428178130
  0.8308477067874186  0.1691923757526064  0.1404056010455615
  0.0808891775933555  0.4195878464418530  0.1392564614186792
  0.3305310825841539  0.4213420572138952  0.1392950205943909
  0.5814092743303614  0.4173428969032933  0.1345843240796479
  0.8327307691072462  0.4204403171205136  0.1384866939558672
  0.0814845855166246  0.6703339536649388  0.1396471866167253
  0.3300051067145068  0.6707887446429007  0.1397994156331010
  0.5797531611861940  0.6694285284703057  0.1433282048200844
  0.8271867599338798  0.6626158326252568  0.1432952650743811
  0.0801695936403606  0.9189911602342706  0.1416233333279977
  0.3309080148049309  0.9209683809355895  0.1407082192404618
  0.5803218554758551  0.9201854797809967  0.1415020506046877
  0.8293169467189788  0.9179407787866934  0.1427791044704267
  0.1633666434016456  0.0850722492420411  0.0551432823172461
  0.1650397794748192  0.0873938698743520  0.2267204722642105
  0.4145629428106467  0.0876483504494804  0.0546959919414111
  0.4154045402053982  0.0885492088316513  0.2261222952952409
  0.6636767157146323  0.0855668083856202  0.0549290609069734
  0.6647042662376816  0.0883843205277286  0.2266555263624620
  0.9130113377609556  0.0832731657062778  0.0555083627366540
  0.9145880187880171  0.0868968687091738  0.2271020359640370
  0.1634541762062288  0.3352968502344199  0.0537837705228089
  0.1642432523290436  0.3370387763242308  0.2255651797782412
  0.4115282674634639  0.3359611076933017  0.0518130779219828
  0.4190431850748522  0.3432957139416943  0.2239619249060607
  0.6657367335257137  0.3344447377036457  0.0511860446911571
  0.6692007576124576  0.3460963587709721  0.2254655907756681
  0.9146277644003339  0.3346688099846832  0.0532634365194649
  0.9150169665121567  0.3367010812461192  0.2252244011576457
  0.1641502800180785  0.5869322865167369  0.0533625874246990
  0.1634114760732936  0.5860389819357110  0.2254537053273741
  0.4162562563406645  0.5889501033202065  0.0548574656510242
  0.4097746735651902  0.5859628865021904  0.2259866290610756
  0.6638342254950546  0.5885153583206466  0.0568319148724693
  0.9137359773319281  0.5885407514313752  0.0541859682453370
  0.9161964626242488  0.5836294587411472  0.2261160831168534
  0.1640835762864316  0.8380269609382237  0.0547260822041204
  0.1642843471675594  0.8361791882286889  0.2266859683962374
  0.4146783008193575  0.8382022405802730  0.0546890156026760
  0.4128959340888085  0.8366894756334637  0.2266585882018182
  0.6631351996390441  0.8345288615806123  0.0569508383988399
  0.6635558352513429  0.8383687830070959  0.2285322827846282
  0.9107808401163332  0.8317082391172450  0.0575276426022541
  0.9124649644025421  0.8330537170920451  0.2274919604296684
  0.6470237493963096  0.5358254291628186  0.2632329196100481
  0.6267115512681473  0.4830555029707778  0.3734688557924176
  0.5898456372432235  0.5589137880085407  0.3668044583433271
  0.6434456138225282  0.4216620688926840  0.4058589491133894
  0.5551041645035110  0.6144383866638294  0.3885959561775738
  0.7732593023154576  0.6428501961073371  0.2852017330658796
  0.6300242442037589  0.6517495914852570  0.2475292581448048
 
  0.00000000E+00  0.00000000E+00  0.00000000E+00
  0.00000000E+00  0.00000000E+00  0.00000000E+00
  0.00000000E+00  0.00000000E+00  0.00000000E+00
  0.00000000E+00  0.00000000E+00  0.00000000E+00
  0.00000000E+00  0.00000000E+00  0.00000000E+00
  0.00000000E+00  0.00000000E+00  0.00000000E+00
  0.00000000E+00  0.00000000E+00  0.00000000E+00
  0.00000000E+00  0.00000000E+00  0.00000000E+00
  0.00000000E+00  0.00000000E+00  0.00000000E+00
  0.00000000E+00  0.00000000E+00  0.00000000E+00
  0.00000000E+00  0.00000000E+00  0.00000000E+00
  0.00000000E+00  0.00000000E+00  0.00000000E+00
  0.00000000E+00  0.00000000E+00  0.00000000E+00
  0.00000000E+00  0.00000000E+00  0.00000000E+00
  0.00000000E+00  0.00000000E+00  0.00000000E+00
  0.00000000E+00  0.00000000E+00  0.00000000E+00
  0.00000000E+00  0.00000000E+00  0.00000000E+00
  0.00000000E+00  0.00000000E+00  0.00000000E+00
  0.00000000E+00  0.00000000E+00  0.00000000E+00
  0.00000000E+00  0.00000000E+00  0.00000000E+00
  0.00000000E+00  0.00000000E+00  0.00000000E+00
  0.00000000E+00  0.00000000E+00  0.00000000E+00
  0.00000000E+00  0.00000000E+00  0.00000000E+00
  0.00000000E+00  0.00000000E+00  0.00000000E+00
  0.00000000E+00  0.00000000E+00  0.00000000E+00
  0.00000000E+00  0.00000000E+00  0.00000000E+00
  0.00000000E+00  0.00000000E+00  0.00000000E+00
  0.00000000E+00  0.00000000E+00  0.00000000E+00
  0.00000000E+00  0.00000000E+00  0.00000000E+00
  0.00000000E+00  0.00000000E+00  0.00000000E+00
  0.00000000E+00  0.00000000E+00  0.00000000E+00
  0.00000000E+00  0.00000000E+00  0.00000000E+00
  0.00000000E+00  0.00000000E+00  0.00000000E+00
  0.00000000E+00  0.00000000E+00  0.00000000E+00
  0.00000000E+00  0.00000000E+00  0.00000000E+00
  0.00000000E+00  0.00000000E+00  0.00000000E+00
  0.00000000E+00  0.00000000E+00  0.00000000E+00
  0.00000000E+00  0.00000000E+00  0.00000000E+00
  0.00000000E+00  0.00000000E+00  0.00000000E+00
  0.00000000E+00  0.00000000E+00  0.00000000E+00
  0.00000000E+00  0.00000000E+00  0.00000000E+00
  0.00000000E+00  0.00000000E+00  0.00000000E+00
  0.00000000E+00  0.00000000E+00  0.00000000E+00
  0.00000000E+00  0.00000000E+00  0.00000000E+00
  0.00000000E+00  0.00000000E+00  0.00000000E+00
  0.00000000E+00  0.00000000E+00  0.00000000E+00
  0.00000000E+00  0.00000000E+00  0.00000000E+00
  0.00000000E+00  0.00000000E+00  0.00000000E+00
  0.00000000E+00  0.00000000E+00  0.00000000E+00
  0.00000000E+00  0.00000000E+00  0.00000000E+00
  0.00000000E+00  0.00000000E+00  0.00000000E+00
  0.00000000E+00  0.00000000E+00  0.00000000E+00
  0.00000000E+00  0.00000000E+00  0.00000000E+00
  0.00000000E+00  0.00000000E+00  0.00000000E+00
