POSCARIr                                
   1.00000000000000     
    12.7690000533999992    0.0000000000000000    0.0000000000000000
    -6.3845000266999996   11.0582784271999994    0.0000000000000000
     0.0000000000000000    0.0000000000000000   18.1282997130999988
   Mo   S    Ir   C    H 
    16    31     1     2     6
Direct
  0.0702088586273137  0.1558848947580925  0.1419951844729945
  0.3206298374717974  0.1567234593760664  0.1432726536451736
  0.5692005002294631  0.1556330399419922  0.1410554482337568
  0.8199019842825752  0.1558900526411658  0.1403251354894912
  0.0706278848649693  0.4058799714414851  0.1415277721899132
  0.3223567479074059  0.4077705513506286  0.1439768067481954
  0.5779991632817876  0.4105131617613099  0.1443166672363942
  0.8190400002575102  0.4036154493106199  0.1393679804379737
  0.0681666071165958  0.6542815679132209  0.1412879205588033
  0.3196801220379599  0.6565941252238893  0.1425619676308949
  0.5718677380370848  0.6586858696276388  0.1438328837848901
  0.8226454810503925  0.6546486332356691  0.1336654127935967
  0.0671027872944637  0.9042389011523607  0.1421250480524802
  0.3182123941653104  0.9058979112142308  0.1421601549382583
  0.5683846312599815  0.9072918413562828  0.1406877620003708
  0.8171765069892728  0.9063743420648591  0.1399520190184709
  0.1542033434346232  0.0724673005083087  0.0569569879621567
  0.1516596264926960  0.0713361178329953  0.2282253765771854
  0.4012709646337552  0.0728261516284621  0.0562545508753573
  0.4034766255943323  0.0726838886585930  0.2282192104113262
  0.6523850858682629  0.0731793136743844  0.0543988624862215
  0.6535327068500280  0.0735568096589706  0.2267024939246650
  0.9045098599341789  0.0737389754585726  0.0547404288556835
  0.9023033564327837  0.0724626261065792  0.2265846184317813
  0.1567178971598635  0.3236304786733005  0.0568304976467430
  0.1532315581734165  0.3224646764513605  0.2282306840146430
  0.4082694741223782  0.3259046948133571  0.0589510481528186
  0.4081411344369681  0.3256593566761042  0.2287188253766946
  0.6507497668402040  0.3229481517281237  0.0553493294166894
  0.6563093683043510  0.3214061959021539  0.2274953735593461
  0.9050733808719187  0.3218031679085271  0.0542608142534121
  0.9030320727640558  0.3217874752688191  0.2262332812874271
  0.1542350202459589  0.5729252649452171  0.0560472881989546
  0.1515360294595191  0.5720650525322594  0.2277986702408269
  0.4057014308532904  0.5740587071824301  0.0580361500108662
  0.4031322634357891  0.5741483898574935  0.2292876305246537
  0.6509843660410031  0.5729633612144375  0.0568925043818770
  0.9059635788973106  0.5699802984345427  0.0512888819082445
  0.8932650930995947  0.5670340748368422  0.2261159913404786
  0.1514137377075699  0.8222199281515408  0.0562877275736878
  0.1503949829371301  0.8207886646515448  0.2275962234651438
  0.4006966334220929  0.8222610116419090  0.0557850320601315
  0.4027788472281657  0.8238832396648704  0.2277769166893621
  0.6501363434501872  0.8212981198020401  0.0553900055184376
  0.6530620257122244  0.8275800682942924  0.2267561722444911
  0.9037276997210115  0.8257720833579469  0.0523812806623287
  0.8913659769362005  0.8145128642611990  0.2252761499501191
  0.7118662670520089  0.5985008278247228  0.2623085318021546
  0.7666749649010371  0.6149786540875846  0.3778519709032856
  0.6922712475618805  0.6670448453138471  0.3698373744837140
  0.7316495086650439  0.5263731046322373  0.4035331870286213
  0.8648548049044549  0.6732376527121217  0.3803638217995680
  0.7321748376307130  0.7651174600894841  0.3663818042271907
  0.5984676626064801  0.6185946399776888  0.3885224462057421
  0.5920890833527035  0.6086411282531513  0.2534976020469811
  0.6081702173909040  0.4733413429624740  0.2906134142693209
 
  0.00000000E+00  0.00000000E+00  0.00000000E+00
  0.00000000E+00  0.00000000E+00  0.00000000E+00
  0.00000000E+00  0.00000000E+00  0.00000000E+00
  0.00000000E+00  0.00000000E+00  0.00000000E+00
  0.00000000E+00  0.00000000E+00  0.00000000E+00
  0.00000000E+00  0.00000000E+00  0.00000000E+00
  0.00000000E+00  0.00000000E+00  0.00000000E+00
  0.00000000E+00  0.00000000E+00  0.00000000E+00
  0.00000000E+00  0.00000000E+00  0.00000000E+00
  0.00000000E+00  0.00000000E+00  0.00000000E+00
  0.00000000E+00  0.00000000E+00  0.00000000E+00
  0.00000000E+00  0.00000000E+00  0.00000000E+00
  0.00000000E+00  0.00000000E+00  0.00000000E+00
  0.00000000E+00  0.00000000E+00  0.00000000E+00
  0.00000000E+00  0.00000000E+00  0.00000000E+00
  0.00000000E+00  0.00000000E+00  0.00000000E+00
  0.00000000E+00  0.00000000E+00  0.00000000E+00
  0.00000000E+00  0.00000000E+00  0.00000000E+00
  0.00000000E+00  0.00000000E+00  0.00000000E+00
  0.00000000E+00  0.00000000E+00  0.00000000E+00
  0.00000000E+00  0.00000000E+00  0.00000000E+00
  0.00000000E+00  0.00000000E+00  0.00000000E+00
  0.00000000E+00  0.00000000E+00  0.00000000E+00
  0.00000000E+00  0.00000000E+00  0.00000000E+00
  0.00000000E+00  0.00000000E+00  0.00000000E+00
  0.00000000E+00  0.00000000E+00  0.00000000E+00
  0.00000000E+00  0.00000000E+00  0.00000000E+00
  0.00000000E+00  0.00000000E+00  0.00000000E+00
  0.00000000E+00  0.00000000E+00  0.00000000E+00
  0.00000000E+00  0.00000000E+00  0.00000000E+00
  0.00000000E+00  0.00000000E+00  0.00000000E+00
  0.00000000E+00  0.00000000E+00  0.00000000E+00
  0.00000000E+00  0.00000000E+00  0.00000000E+00
  0.00000000E+00  0.00000000E+00  0.00000000E+00
  0.00000000E+00  0.00000000E+00  0.00000000E+00
  0.00000000E+00  0.00000000E+00  0.00000000E+00
  0.00000000E+00  0.00000000E+00  0.00000000E+00
  0.00000000E+00  0.00000000E+00  0.00000000E+00
  0.00000000E+00  0.00000000E+00  0.00000000E+00
  0.00000000E+00  0.00000000E+00  0.00000000E+00
  0.00000000E+00  0.00000000E+00  0.00000000E+00
  0.00000000E+00  0.00000000E+00  0.00000000E+00
  0.00000000E+00  0.00000000E+00  0.00000000E+00
  0.00000000E+00  0.00000000E+00  0.00000000E+00
  0.00000000E+00  0.00000000E+00  0.00000000E+00
  0.00000000E+00  0.00000000E+00  0.00000000E+00
  0.00000000E+00  0.00000000E+00  0.00000000E+00
  0.00000000E+00  0.00000000E+00  0.00000000E+00
  0.00000000E+00  0.00000000E+00  0.00000000E+00
  0.00000000E+00  0.00000000E+00  0.00000000E+00
  0.00000000E+00  0.00000000E+00  0.00000000E+00
  0.00000000E+00  0.00000000E+00  0.00000000E+00
  0.00000000E+00  0.00000000E+00  0.00000000E+00
  0.00000000E+00  0.00000000E+00  0.00000000E+00
  0.00000000E+00  0.00000000E+00  0.00000000E+00
  0.00000000E+00  0.00000000E+00  0.00000000E+00
