POSCARMoS21Pd_                          
   1.00000000000000     
    12.7690000533999992    0.0000000000000000    0.0000000000000000
    -6.3845000266999996   11.0582784271999994    0.0000000000000000
     0.0000000000000000    0.0000000000000000   18.1282997130999988
   Mo   S    Ir   C    H 
    16    31     1     2     4
Direct
  0.0837533878384087  0.1665749228683793  0.1424778656191367
  0.3335426684089398  0.1660101903850069  0.1424416502649213
  0.5833041922278681  0.1648546264321914  0.1428837090066209
  0.8332964339594913  0.1659408688710061  0.1428017126141708
  0.0836503730363076  0.4165624717610551  0.1431554969396720
  0.3340688410028088  0.4165845095428037  0.1432468176230238
  0.5848665447149576  0.4160925237154450  0.1415150723712424
  0.8319709942406833  0.4158454844284391  0.1410899117348729
  0.0822078093647988  0.6653615016652326  0.1426703461546824
  0.3339987051260201  0.6661171028333593  0.1438597265907198
  0.5864967315097160  0.6634208380398274  0.1450396107968527
  0.8369655122532044  0.6690444874783652  0.1356241558538892
  0.0835761007955241  0.9166968274124903  0.1412202146496599
  0.3334173136909525  0.9154284729131058  0.1432227837886456
  0.5836076994810311  0.9146747716220918  0.1437018575036327
  0.8336118553278916  0.9163008916908698  0.1414018779786915
  0.1677899296632059  0.0842085807555255  0.0562006893318178
  0.1663748119029133  0.0821153031329684  0.2281002186442114
  0.4166650855273943  0.0817588536583104  0.0570380608558491
  0.4165077940492894  0.0825060541534547  0.2288432927359670
  0.6661822394771051  0.0807756092878971  0.0572962649766170
  0.6671828361043152  0.0823086428614825  0.2291353106350444
  0.9170831461230673  0.0841449021717870  0.0562940976056796
  0.9168309284858766  0.0822792457820620  0.2281321753367021
  0.1676212511407232  0.3340216506774391  0.0571176413245258
  0.1667774327391548  0.3327604805636754  0.2289588588510399
  0.4165751568271114  0.3331198541276317  0.0561421122819451
  0.4187397581278550  0.3341501721668922  0.2276613958420388
  0.6652429707580972  0.3303233364940341  0.0556895985170551
  0.6675733668955650  0.3349145267929261  0.2280893539031035
  0.9173637827563735  0.3324685519043475  0.0568041495771974
  0.9158354231547704  0.3335969282669007  0.2280244466398539
  0.1679745866143033  0.5833773327358954  0.0575743464275664
  0.1656931339979991  0.5828743152367722  0.2292300080352488
  0.4201521340672735  0.5843680096077536  0.0585391712235418
  0.4187345284291295  0.5823524736737787  0.2287959490577219
  0.6654022147847274  0.5818832638841619  0.0559758042069077
  0.9190931355684412  0.5819164032560568  0.0534491326701673
  0.9070844076556939  0.5820094691790655  0.2270547741038354
  0.1673987013381763  0.8319718464784990  0.0566733131348293
  0.1652643260242763  0.8324784998252989  0.2281151401959643
  0.4172953838674016  0.8319368077918697  0.0578138448083363
  0.4170831456631594  0.8325136969112199  0.2297835519260484
  0.6645050877208545  0.8286242969517564  0.0577176105589442
  0.6694146313413919  0.8307221764700102  0.2286671888165810
  0.9191937674259196  0.8379751335470293  0.0523971067519258
  0.9140049923108718  0.8304029557087036  0.2254703522737184
  0.6931621657285518  0.5727583708701314  0.2491687591280608
  0.6038806403230891  0.5911728673776889  0.3480397410669384
  0.6994119119966554  0.5709893676467992  0.3675755518561076
  0.6138715143859530  0.6809975793104514  0.3521405916847041
  0.5107260654218352  0.5162908527476755  0.3501759474737320
  0.6810776566663617  0.4819866209134301  0.3863275682282355
  0.7865950819564987  0.6470737454189448  0.3848228998217612
 
  0.00000000E+00  0.00000000E+00  0.00000000E+00
  0.00000000E+00  0.00000000E+00  0.00000000E+00
  0.00000000E+00  0.00000000E+00  0.00000000E+00
  0.00000000E+00  0.00000000E+00  0.00000000E+00
  0.00000000E+00  0.00000000E+00  0.00000000E+00
  0.00000000E+00  0.00000000E+00  0.00000000E+00
  0.00000000E+00  0.00000000E+00  0.00000000E+00
  0.00000000E+00  0.00000000E+00  0.00000000E+00
  0.00000000E+00  0.00000000E+00  0.00000000E+00
  0.00000000E+00  0.00000000E+00  0.00000000E+00
  0.00000000E+00  0.00000000E+00  0.00000000E+00
  0.00000000E+00  0.00000000E+00  0.00000000E+00
  0.00000000E+00  0.00000000E+00  0.00000000E+00
  0.00000000E+00  0.00000000E+00  0.00000000E+00
  0.00000000E+00  0.00000000E+00  0.00000000E+00
  0.00000000E+00  0.00000000E+00  0.00000000E+00
  0.00000000E+00  0.00000000E+00  0.00000000E+00
  0.00000000E+00  0.00000000E+00  0.00000000E+00
  0.00000000E+00  0.00000000E+00  0.00000000E+00
  0.00000000E+00  0.00000000E+00  0.00000000E+00
  0.00000000E+00  0.00000000E+00  0.00000000E+00
  0.00000000E+00  0.00000000E+00  0.00000000E+00
  0.00000000E+00  0.00000000E+00  0.00000000E+00
  0.00000000E+00  0.00000000E+00  0.00000000E+00
  0.00000000E+00  0.00000000E+00  0.00000000E+00
  0.00000000E+00  0.00000000E+00  0.00000000E+00
  0.00000000E+00  0.00000000E+00  0.00000000E+00
  0.00000000E+00  0.00000000E+00  0.00000000E+00
  0.00000000E+00  0.00000000E+00  0.00000000E+00
  0.00000000E+00  0.00000000E+00  0.00000000E+00
  0.00000000E+00  0.00000000E+00  0.00000000E+00
  0.00000000E+00  0.00000000E+00  0.00000000E+00
  0.00000000E+00  0.00000000E+00  0.00000000E+00
  0.00000000E+00  0.00000000E+00  0.00000000E+00
  0.00000000E+00  0.00000000E+00  0.00000000E+00
  0.00000000E+00  0.00000000E+00  0.00000000E+00
  0.00000000E+00  0.00000000E+00  0.00000000E+00
  0.00000000E+00  0.00000000E+00  0.00000000E+00
  0.00000000E+00  0.00000000E+00  0.00000000E+00
  0.00000000E+00  0.00000000E+00  0.00000000E+00
  0.00000000E+00  0.00000000E+00  0.00000000E+00
  0.00000000E+00  0.00000000E+00  0.00000000E+00
  0.00000000E+00  0.00000000E+00  0.00000000E+00
  0.00000000E+00  0.00000000E+00  0.00000000E+00
  0.00000000E+00  0.00000000E+00  0.00000000E+00
  0.00000000E+00  0.00000000E+00  0.00000000E+00
  0.00000000E+00  0.00000000E+00  0.00000000E+00
  0.00000000E+00  0.00000000E+00  0.00000000E+00
  0.00000000E+00  0.00000000E+00  0.00000000E+00
  0.00000000E+00  0.00000000E+00  0.00000000E+00
  0.00000000E+00  0.00000000E+00  0.00000000E+00
  0.00000000E+00  0.00000000E+00  0.00000000E+00
  0.00000000E+00  0.00000000E+00  0.00000000E+00
  0.00000000E+00  0.00000000E+00  0.00000000E+00
