POSCARMoS21PdDoped                      
   1.00000000000000     
    12.7690000533999992    0.0000000000000000    0.0000000000000000
    -6.3845000266999996   11.0582784271999994    0.0000000000000000
     0.0000000000000000    0.0000000000000000   18.1282997130999988
   Mo   S    Ir   C    H 
    16    31     1     2     2
Direct
  0.0808313802864084  0.1635857634550653  0.1419937034724492
  0.3313168568250119  0.1646276318717301  0.1428159511315275
  0.5807484052404568  0.1648210345792532  0.1427887969323304
  0.8302972308622674  0.1636288376969280  0.1419197834391912
  0.0805686774777517  0.4134310453149400  0.1412022372240357
  0.3308174244799439  0.4141492637400325  0.1418146549161084
  0.5831949473810402  0.4186868850017174  0.1450252691531078
  0.8309087660519947  0.4139149740843255  0.1416035261921399
  0.0811660522584801  0.6634508388227743  0.1404261697987307
  0.3300461844003924  0.6636452088240803  0.1405963478459311
  0.5786699272728557  0.6647360750136769  0.1400078719173336
  0.8341910185398359  0.6643293987889408  0.1387732748758727
  0.0804931690688346  0.9141286855174635  0.1417251991755767
  0.3308447860501090  0.9144875406732762  0.1417727968008419
  0.5807949867320078  0.9145837474429226  0.1415719113332612
  0.8296076445339237  0.9123301235872813  0.1410510190547356
  0.1653867052445218  0.0813826633353147  0.0563610648483267
  0.1635132673584215  0.0800933045422545  0.2282005994145478
  0.4147418049364388  0.0821997199597689  0.0566301351885563
  0.4139663134767397  0.0805536641355618  0.2285764487117657
  0.6635439575696688  0.0817906298471911  0.0562210921022016
  0.6640541889953884  0.0804132287431187  0.2281316208436281
  0.9139756518457882  0.0804286234936312  0.0562508359373992
  0.9133653672003411  0.0793077917333087  0.2272619838632287
  0.1642335096100455  0.3297597581188860  0.0557382766524998
  0.1636587770529825  0.3304371649146771  0.2275815077898301
  0.4180636860079340  0.3326756923807934  0.0577001723621158
  0.4144771780021000  0.3328384583671459  0.2282235928357629
  0.6620493046314940  0.3326787633578563  0.0576038834604667
  0.6660650731595107  0.3331099774811423  0.2283349431451238
  0.9133887354419443  0.3296602950978803  0.0556449201432116
  0.9142984186372367  0.3303589362315733  0.2275032355097227
  0.1638436580753798  0.5796970867787273  0.0547514413825733
  0.1639526851430266  0.5804218500019992  0.2267859553055686
  0.4122479820349423  0.5791009220311406  0.0540271513456897
  0.4132867586446323  0.5804550275131719  0.2265843467403038
  0.6635863766301195  0.5800744288205670  0.0572062900450878
  0.9149315163152919  0.5783001485538286  0.0534033649645239
  0.9144174522572779  0.5801833902125557  0.2261440146158762
  0.1644673296027896  0.8316376562586694  0.0555331304164550
  0.1635736693103856  0.8297112732784507  0.2270803563479639
  0.4142317745767035  0.8315858975697235  0.0554816520237794
  0.4135154258701605  0.8299918595930450  0.2271216625334976
  0.6634783280504399  0.8315345999461686  0.0546602608977203
  0.6636886804833984  0.8279584316490339  0.2274534242962123
  0.9154602694740788  0.8319918215744107  0.0543188520499111
  0.9094049943434702  0.8261710178841480  0.2273980452877004
  0.6831317704299034  0.6145643404565873  0.2486117524257172
  0.6249418143588148  0.5063828535779686  0.3402018897077309
  0.6827777460407016  0.6173570641708727  0.3611800637932838
  0.5745351947493871  0.4106565721199733  0.3526428979603203
  0.7188370703326736  0.6862517246232145  0.4036086680177035
 
  0.00000000E+00  0.00000000E+00  0.00000000E+00
  0.00000000E+00  0.00000000E+00  0.00000000E+00
  0.00000000E+00  0.00000000E+00  0.00000000E+00
  0.00000000E+00  0.00000000E+00  0.00000000E+00
  0.00000000E+00  0.00000000E+00  0.00000000E+00
  0.00000000E+00  0.00000000E+00  0.00000000E+00
  0.00000000E+00  0.00000000E+00  0.00000000E+00
  0.00000000E+00  0.00000000E+00  0.00000000E+00
  0.00000000E+00  0.00000000E+00  0.00000000E+00
  0.00000000E+00  0.00000000E+00  0.00000000E+00
  0.00000000E+00  0.00000000E+00  0.00000000E+00
  0.00000000E+00  0.00000000E+00  0.00000000E+00
  0.00000000E+00  0.00000000E+00  0.00000000E+00
  0.00000000E+00  0.00000000E+00  0.00000000E+00
  0.00000000E+00  0.00000000E+00  0.00000000E+00
  0.00000000E+00  0.00000000E+00  0.00000000E+00
  0.00000000E+00  0.00000000E+00  0.00000000E+00
  0.00000000E+00  0.00000000E+00  0.00000000E+00
  0.00000000E+00  0.00000000E+00  0.00000000E+00
  0.00000000E+00  0.00000000E+00  0.00000000E+00
  0.00000000E+00  0.00000000E+00  0.00000000E+00
  0.00000000E+00  0.00000000E+00  0.00000000E+00
  0.00000000E+00  0.00000000E+00  0.00000000E+00
  0.00000000E+00  0.00000000E+00  0.00000000E+00
  0.00000000E+00  0.00000000E+00  0.00000000E+00
  0.00000000E+00  0.00000000E+00  0.00000000E+00
  0.00000000E+00  0.00000000E+00  0.00000000E+00
  0.00000000E+00  0.00000000E+00  0.00000000E+00
  0.00000000E+00  0.00000000E+00  0.00000000E+00
  0.00000000E+00  0.00000000E+00  0.00000000E+00
  0.00000000E+00  0.00000000E+00  0.00000000E+00
  0.00000000E+00  0.00000000E+00  0.00000000E+00
  0.00000000E+00  0.00000000E+00  0.00000000E+00
  0.00000000E+00  0.00000000E+00  0.00000000E+00
  0.00000000E+00  0.00000000E+00  0.00000000E+00
  0.00000000E+00  0.00000000E+00  0.00000000E+00
  0.00000000E+00  0.00000000E+00  0.00000000E+00
  0.00000000E+00  0.00000000E+00  0.00000000E+00
  0.00000000E+00  0.00000000E+00  0.00000000E+00
  0.00000000E+00  0.00000000E+00  0.00000000E+00
  0.00000000E+00  0.00000000E+00  0.00000000E+00
  0.00000000E+00  0.00000000E+00  0.00000000E+00
  0.00000000E+00  0.00000000E+00  0.00000000E+00
  0.00000000E+00  0.00000000E+00  0.00000000E+00
  0.00000000E+00  0.00000000E+00  0.00000000E+00
  0.00000000E+00  0.00000000E+00  0.00000000E+00
  0.00000000E+00  0.00000000E+00  0.00000000E+00
  0.00000000E+00  0.00000000E+00  0.00000000E+00
  0.00000000E+00  0.00000000E+00  0.00000000E+00
  0.00000000E+00  0.00000000E+00  0.00000000E+00
  0.00000000E+00  0.00000000E+00  0.00000000E+00
  0.00000000E+00  0.00000000E+00  0.00000000E+00
