Mo   S    Ir   C    H                   
   1.00000000000000     
    12.7690000533999992    0.0000000000000000    0.0000000000000000
    -6.3845000266999996   11.0582784271999994    0.0000000000000000
     0.0000000000000000    0.0000000000000000   18.1282997130999988
   Mo   S    Ir   C    H 
    16    31     1     2     6
Direct
  0.0747993917451411  0.1609918877726049  0.1406063553055940
  0.3251961900355694  0.1616576470494551  0.1415755942043558
  0.5745007466005517  0.1619412909837298  0.1414685122483963
  0.8242291144663378  0.1610814046683516  0.1404292252478319
  0.0744147200344714  0.4108044239306695  0.1403642886412760
  0.3249767998305488  0.4109816862199988  0.1405769244767367
  0.5767207955171958  0.4152475873706424  0.1426689800684287
  0.8239427187607136  0.4108260915993667  0.1403166296240239
  0.0743111280591938  0.6606082681812143  0.1398324851197391
  0.3242748560353585  0.6606602978129704  0.1399543765771373
  0.5740160897127577  0.6625026262934836  0.1369248116348874
  0.8259511305667693  0.6619925020929592  0.1371720092794801
  0.0745934881021412  0.9113944355551001  0.1403580155829230
  0.3245084332946346  0.9112529321630845  0.1408448298667244
  0.5745280915252189  0.9118274202657358  0.1400075220358833
  0.8240421567906758  0.9105263327886503  0.1388092419809377
  0.1595178075458505  0.0787277820005420  0.0550226420040202
  0.1573754981420540  0.0773234056225329  0.2268741687505453
  0.4083373342335114  0.0787084182680912  0.0555082528409243
  0.4078793094692787  0.0776393474127322  0.2274104896808651
  0.6573538184628528  0.0792282471339867  0.0547458598174804
  0.6579610168173747  0.0776196264662269  0.2266681015464790
  0.9085378956542262  0.0788270275891920  0.0542905105094146
  0.9071619595831562  0.0765994848799904  0.2256561617535954
  0.1581543014664678  0.3273594271312002  0.0546192905036098
  0.1578515408581873  0.3276600304398666  0.2264354054291338
  0.4109519636436776  0.3289059838171097  0.0559664518790539
  0.4097211785319813  0.3304371857172527  0.2270923675175827
  0.6558454449958707  0.3291057645440362  0.0557683572737254
  0.6589125615582497  0.3307044820030275  0.2270851682151840
  0.9075393115127894  0.3273754874329594  0.0544177350355362
  0.9076672543438828  0.3276354485510476  0.2262873948461219
  0.1577136019871258  0.5772599326542672  0.0542474365052769
  0.1576980187701841  0.5775661165972272  0.2261307266593316
  0.4055722396418814  0.5761292483768466  0.0525529834689028
  0.4107042516357003  0.5778263793905096  0.2249895078882962
  0.6573561175256806  0.5768668965583201  0.0542263111797891
  0.9083646395972131  0.5761685520920475  0.0524621774625677
  0.9052928712164580  0.5774198139045386  0.2246992444654300
  0.1582839890717318  0.8282051926436610  0.0545740637445702
  0.1571043800326961  0.8270115740058701  0.2262456745226466
  0.4075088864842562  0.8280947710880814  0.0544676594469608
  0.4077981009472252  0.8272492159591760  0.2261777256813609
  0.6574001401283540  0.8296672939687497  0.0522693287263111
  0.6581716526081484  0.8255035613843190  0.2246953305913387
  0.9098294390590413  0.8293072369553214  0.0525810730983923
  0.9035593845489343  0.8244007595188176  0.2251072729293319
  0.6700834445443502  0.6033784890698334  0.2453180479367456
  0.6669849419533191  0.6032264094028911  0.3662095475213911
  0.7756051523503822  0.6063254069166690  0.4029221469652605
  0.6777618658204334  0.6948553218577543  0.3619846832959407
  0.5829237915408612  0.5480102628914796  0.3973148224465526
  0.7638129584986171  0.5153239970536672  0.4083435019396405
  0.7879137255768383  0.6452709535317196  0.4587060541348927
  0.8596685196826617  0.6624269309620671  0.3721402854828473
  0.6165228651925970  0.5004278151778212  0.3099734501110424
 
             NaN             NaN             NaN
             NaN             NaN             NaN
             NaN             NaN             NaN
             NaN             NaN             NaN
             NaN             NaN             NaN
             NaN             NaN             NaN
             NaN             NaN             NaN
             NaN             NaN             NaN
             NaN             NaN             NaN
             NaN             NaN             NaN
             NaN             NaN             NaN
             NaN             NaN             NaN
             NaN             NaN             NaN
             NaN             NaN             NaN
             NaN             NaN             NaN
             NaN             NaN             NaN
             NaN             NaN             NaN
             NaN             NaN             NaN
             NaN             NaN             NaN
             NaN             NaN             NaN
             NaN             NaN             NaN
             NaN             NaN             NaN
             NaN             NaN             NaN
             NaN             NaN             NaN
             NaN             NaN             NaN
             NaN             NaN             NaN
             NaN             NaN             NaN
             NaN             NaN             NaN
             NaN             NaN             NaN
             NaN             NaN             NaN
             NaN             NaN             NaN
             NaN             NaN             NaN
             NaN             NaN             NaN
             NaN             NaN             NaN
             NaN             NaN             NaN
             NaN             NaN             NaN
             NaN             NaN             NaN
             NaN             NaN             NaN
             NaN             NaN             NaN
             NaN             NaN             NaN
             NaN             NaN             NaN
             NaN             NaN             NaN
             NaN             NaN             NaN
             NaN             NaN             NaN
             NaN             NaN             NaN
             NaN             NaN             NaN
             NaN             NaN             NaN
             NaN             NaN             NaN
             NaN             NaN             NaN
             NaN             NaN             NaN
             NaN             NaN             NaN
             NaN             NaN             NaN
             NaN             NaN             NaN
             NaN             NaN             NaN
             NaN             NaN             NaN
             NaN             NaN             NaN
