POSCARMoS21Pd_                          
   1.00000000000000     
    12.7690000533999992    0.0000000000000000    0.0000000000000000
    -6.3845000266999996   11.0582784271999994    0.0000000000000000
     0.0000000000000000    0.0000000000000000   18.1282997130999988
   Mo   S    Pt   C    H 
    16    31     1     2     4
Direct
  0.0859236268709872  0.1668115415603088  0.1416555525869160
  0.3359040832429553  0.1667639574607531  0.1420182278766481
  0.5853877517315310  0.1664328618906439  0.1420178796859999
  0.8353599554640375  0.1664523134329521  0.1416555389444185
  0.0857156839331877  0.4168886900642215  0.1418324938597136
  0.3371634372931567  0.4173167441388268  0.1422031551146188
  0.5880228166468666  0.4186480262055576  0.1419298741331630
  0.8341718225334143  0.4165605675869904  0.1402855580074182
  0.0840719032740634  0.6659530568203841  0.1415501569812312
  0.3355414480546713  0.6667732017190567  0.1423718503396405
  0.5878301438085093  0.6658755256358020  0.1432629610933832
  0.8364932795662923  0.6672966437731210  0.1358687923877692
  0.0854691005953362  0.9169288473554700  0.1408310498004961
  0.3354105697588007  0.9163292013733080  0.1422401945681842
  0.5854723912170081  0.9159830702111559  0.1424950538098235
  0.8349900424371239  0.9158093415822590  0.1406862720572321
  0.1699394234992973  0.0844213157356725  0.0556433583355482
  0.1684147672125052  0.0826783173519666  0.2275254448944695
  0.4187148383967098  0.0829099643935093  0.0562875306407748
  0.4189204730351195  0.0833018869611619  0.2281083014809210
  0.6682158216682461  0.0823737736542132  0.0562149513656034
  0.6693459772477495  0.0834835001131096  0.2279994567362891
  0.9190234672208578  0.0838674413381998  0.0555740716784234
  0.9186575830417854  0.0824726612948827  0.2270790957408725
  0.1701146539884959  0.3341276933982935  0.0561912376948006
  0.1694348451286721  0.3335320616813048  0.2277048648519071
  0.4209920039383372  0.3341061252260714  0.0562314228498360
  0.4218912679630433  0.3352139862483410  0.2272128051987595
  0.6666919375612671  0.3328235492109846  0.0551558790896694
  0.6696396072223252  0.3356708532509787  0.2271995137656202
  0.9190950258182262  0.3328714738386144  0.0556015648339133
  0.9181568048442004  0.3338641737739934  0.2269240086561248
  0.1692716983826308  0.5836455023056242  0.0561961472110224
  0.1677101960619707  0.5831493375669037  0.2278925781528130
  0.4216040395910252  0.5849755670819619  0.0569080782535753
  0.4207162540598227  0.5836082449864340  0.2272269786273069
  0.6670864744060094  0.5826783556355262  0.0556654463464451
  0.9200442641446632  0.5826633765220848  0.0527355234504793
  0.9107969963319378  0.5826182137953810  0.2256150185451398
  0.1691452185036459  0.8329293058977000  0.0558654637879669
  0.1675802802731728  0.8327700184278124  0.2273323122213492
  0.4190067595760539  0.8330478135538613  0.0565545249717091
  0.4188176258158121  0.8331353063589018  0.2284803859063503
  0.6665761874027245  0.8303575319004977  0.0562136524456014
  0.6705002680133951  0.8315887091199976  0.2277780931280461
  0.9205699123567384  0.8361850780046879  0.0526568219783446
  0.9148588872702221  0.8288745026907310  0.2247360696054077
  0.6908902014016873  0.5874058448612117  0.2533222353668060
  0.5825389837315600  0.5743341074558567  0.3585311232909877
  0.6888902872691468  0.5740334474375171  0.3736714036970029
  0.5786986038658346  0.6576909003411101  0.3617477337854778
  0.4958991012956893  0.4903146524767704  0.3567910017991153
  0.6880889958199865  0.4896460666657103  0.3854444958972608
  0.7702325002115002  0.6574450186315832  0.3904656224715848
 
  0.00000000E+00  0.00000000E+00  0.00000000E+00
  0.00000000E+00  0.00000000E+00  0.00000000E+00
  0.00000000E+00  0.00000000E+00  0.00000000E+00
  0.00000000E+00  0.00000000E+00  0.00000000E+00
  0.00000000E+00  0.00000000E+00  0.00000000E+00
  0.00000000E+00  0.00000000E+00  0.00000000E+00
  0.00000000E+00  0.00000000E+00  0.00000000E+00
  0.00000000E+00  0.00000000E+00  0.00000000E+00
  0.00000000E+00  0.00000000E+00  0.00000000E+00
  0.00000000E+00  0.00000000E+00  0.00000000E+00
  0.00000000E+00  0.00000000E+00  0.00000000E+00
  0.00000000E+00  0.00000000E+00  0.00000000E+00
  0.00000000E+00  0.00000000E+00  0.00000000E+00
  0.00000000E+00  0.00000000E+00  0.00000000E+00
  0.00000000E+00  0.00000000E+00  0.00000000E+00
  0.00000000E+00  0.00000000E+00  0.00000000E+00
  0.00000000E+00  0.00000000E+00  0.00000000E+00
  0.00000000E+00  0.00000000E+00  0.00000000E+00
  0.00000000E+00  0.00000000E+00  0.00000000E+00
  0.00000000E+00  0.00000000E+00  0.00000000E+00
  0.00000000E+00  0.00000000E+00  0.00000000E+00
  0.00000000E+00  0.00000000E+00  0.00000000E+00
  0.00000000E+00  0.00000000E+00  0.00000000E+00
  0.00000000E+00  0.00000000E+00  0.00000000E+00
  0.00000000E+00  0.00000000E+00  0.00000000E+00
  0.00000000E+00  0.00000000E+00  0.00000000E+00
  0.00000000E+00  0.00000000E+00  0.00000000E+00
  0.00000000E+00  0.00000000E+00  0.00000000E+00
  0.00000000E+00  0.00000000E+00  0.00000000E+00
  0.00000000E+00  0.00000000E+00  0.00000000E+00
  0.00000000E+00  0.00000000E+00  0.00000000E+00
  0.00000000E+00  0.00000000E+00  0.00000000E+00
  0.00000000E+00  0.00000000E+00  0.00000000E+00
  0.00000000E+00  0.00000000E+00  0.00000000E+00
  0.00000000E+00  0.00000000E+00  0.00000000E+00
  0.00000000E+00  0.00000000E+00  0.00000000E+00
  0.00000000E+00  0.00000000E+00  0.00000000E+00
  0.00000000E+00  0.00000000E+00  0.00000000E+00
  0.00000000E+00  0.00000000E+00  0.00000000E+00
  0.00000000E+00  0.00000000E+00  0.00000000E+00
  0.00000000E+00  0.00000000E+00  0.00000000E+00
  0.00000000E+00  0.00000000E+00  0.00000000E+00
  0.00000000E+00  0.00000000E+00  0.00000000E+00
  0.00000000E+00  0.00000000E+00  0.00000000E+00
  0.00000000E+00  0.00000000E+00  0.00000000E+00
  0.00000000E+00  0.00000000E+00  0.00000000E+00
  0.00000000E+00  0.00000000E+00  0.00000000E+00
  0.00000000E+00  0.00000000E+00  0.00000000E+00
  0.00000000E+00  0.00000000E+00  0.00000000E+00
  0.00000000E+00  0.00000000E+00  0.00000000E+00
  0.00000000E+00  0.00000000E+00  0.00000000E+00
  0.00000000E+00  0.00000000E+00  0.00000000E+00
  0.00000000E+00  0.00000000E+00  0.00000000E+00
  0.00000000E+00  0.00000000E+00  0.00000000E+00
