POSCARMoS21PdDoped                      
   1.00000000000000     
    12.7690000533999992    0.0000000000000000    0.0000000000000000
    -6.3845000266999996   11.0582784271999994    0.0000000000000000
     0.0000000000000000    0.0000000000000000   18.1282997130999988
   Mo   S    Pt   C    H 
    16    31     1     2     2
Direct
  0.0813050516274565  0.1646701572823517  0.1410339041219421
  0.3314010494122902  0.1649458615506218  0.1418921341938360
  0.5810143036252663  0.1650699703720137  0.1419756023376743
  0.8308225866275425  0.1646651302679584  0.1410486631039564
  0.0811549316616056  0.4148214255663243  0.1407250794546062
  0.3323376584594514  0.4156683849702085  0.1408889413033222
  0.5828793859490065  0.4183176643867876  0.1432688956822515
  0.8308109438422789  0.4156238842531240  0.1409104366618334
  0.0812225872717354  0.6645774947181066  0.1403080781383948
  0.3309582121540217  0.6646046300345217  0.1403564038636471
  0.5815931369665580  0.6652610612526714  0.1388890236702619
  0.8312173549991321  0.6650166130796086  0.1386652649271118
  0.0804945047331340  0.9143155337719279  0.1409875590247873
  0.3312158993817882  0.9149591796951316  0.1413643401580355
  0.5812665117573653  0.9144353697272242  0.1409969403206145
  0.8302635367226651  0.9130941612388818  0.1396288007115878
  0.1652342563841662  0.0816977594155793  0.0555061155486905
  0.1634994429320032  0.0807191751220335  0.2272437337362964
  0.4148844388199984  0.0822262860750850  0.0559380074541892
  0.4142518381852487  0.0811983705933530  0.2278744645651761
  0.6638817079837999  0.0818063944409299  0.0555508413178577
  0.6646555770424309  0.0807741519427135  0.2272858939805752
  0.9146163114693855  0.0817780088813389  0.0550403859298958
  0.9137152398483248  0.0799763054008714  0.2261935743226451
  0.1650737454494961  0.3314494946161127  0.0551291885265230
  0.1648788529284707  0.3318330556255904  0.2266482354002925
  0.4178376075208637  0.3326654950102713  0.0563124092531715
  0.4152578790429996  0.3334916928994144  0.2270143661064953
  0.6623788294864963  0.3327520420080913  0.0563723523673009
  0.6655898306323847  0.3337443626783206  0.2271399063972844
  0.9138711801153671  0.3313994959471013  0.0551396491390655
  0.9143576428655781  0.3317631273210028  0.2266798474647977
  0.1643318299235886  0.5810039454531268  0.0544896633013718
  0.1644586725699295  0.5814132659208963  0.2264834897101189
  0.4143297718184913  0.5815175849099511  0.0537491316232966
  0.4170142555616062  0.5824275272011347  0.2255191750517501
  0.6639026296728854  0.5804755771953132  0.0557885532254659
  0.9148184322590686  0.5813344617896947  0.0536338552125263
  0.9129945603046797  0.5823382557914224  0.2254602183487969
  0.1649111330549037  0.8320460719792949  0.0551216209090320
  0.1637914406349014  0.8307080962891876  0.2267713804933876
  0.4145830267953273  0.8320054911483521  0.0551196535108246
  0.4143768368281843  0.8307356161111521  0.2267897941102259
  0.6635180761196361  0.8312214285320826  0.0534345821065541
  0.6649268142251651  0.8274363024595169  0.2260043380740243
  0.9151113505449379  0.8311621982626652  0.0533395022544943
  0.9095363971021342  0.8269031549631216  0.2259859766865726
  0.6760247910339232  0.6036435298194919  0.2543754595215342
  0.6209735958493907  0.4983173904790059  0.3524431118424272
  0.6785846220495009  0.6084411099895861  0.3701809896432030
  0.5701841877925813  0.4016190857800889  0.3603230524435445
  0.7192754333163008  0.6861818585484091  0.4062254589759098
 
  0.00000000E+00  0.00000000E+00  0.00000000E+00
  0.00000000E+00  0.00000000E+00  0.00000000E+00
  0.00000000E+00  0.00000000E+00  0.00000000E+00
  0.00000000E+00  0.00000000E+00  0.00000000E+00
  0.00000000E+00  0.00000000E+00  0.00000000E+00
  0.00000000E+00  0.00000000E+00  0.00000000E+00
  0.00000000E+00  0.00000000E+00  0.00000000E+00
  0.00000000E+00  0.00000000E+00  0.00000000E+00
  0.00000000E+00  0.00000000E+00  0.00000000E+00
  0.00000000E+00  0.00000000E+00  0.00000000E+00
  0.00000000E+00  0.00000000E+00  0.00000000E+00
  0.00000000E+00  0.00000000E+00  0.00000000E+00
  0.00000000E+00  0.00000000E+00  0.00000000E+00
  0.00000000E+00  0.00000000E+00  0.00000000E+00
  0.00000000E+00  0.00000000E+00  0.00000000E+00
  0.00000000E+00  0.00000000E+00  0.00000000E+00
  0.00000000E+00  0.00000000E+00  0.00000000E+00
  0.00000000E+00  0.00000000E+00  0.00000000E+00
  0.00000000E+00  0.00000000E+00  0.00000000E+00
  0.00000000E+00  0.00000000E+00  0.00000000E+00
  0.00000000E+00  0.00000000E+00  0.00000000E+00
  0.00000000E+00  0.00000000E+00  0.00000000E+00
  0.00000000E+00  0.00000000E+00  0.00000000E+00
  0.00000000E+00  0.00000000E+00  0.00000000E+00
  0.00000000E+00  0.00000000E+00  0.00000000E+00
  0.00000000E+00  0.00000000E+00  0.00000000E+00
  0.00000000E+00  0.00000000E+00  0.00000000E+00
  0.00000000E+00  0.00000000E+00  0.00000000E+00
  0.00000000E+00  0.00000000E+00  0.00000000E+00
  0.00000000E+00  0.00000000E+00  0.00000000E+00
  0.00000000E+00  0.00000000E+00  0.00000000E+00
  0.00000000E+00  0.00000000E+00  0.00000000E+00
  0.00000000E+00  0.00000000E+00  0.00000000E+00
  0.00000000E+00  0.00000000E+00  0.00000000E+00
  0.00000000E+00  0.00000000E+00  0.00000000E+00
  0.00000000E+00  0.00000000E+00  0.00000000E+00
  0.00000000E+00  0.00000000E+00  0.00000000E+00
  0.00000000E+00  0.00000000E+00  0.00000000E+00
  0.00000000E+00  0.00000000E+00  0.00000000E+00
  0.00000000E+00  0.00000000E+00  0.00000000E+00
  0.00000000E+00  0.00000000E+00  0.00000000E+00
  0.00000000E+00  0.00000000E+00  0.00000000E+00
  0.00000000E+00  0.00000000E+00  0.00000000E+00
  0.00000000E+00  0.00000000E+00  0.00000000E+00
  0.00000000E+00  0.00000000E+00  0.00000000E+00
  0.00000000E+00  0.00000000E+00  0.00000000E+00
  0.00000000E+00  0.00000000E+00  0.00000000E+00
  0.00000000E+00  0.00000000E+00  0.00000000E+00
  0.00000000E+00  0.00000000E+00  0.00000000E+00
  0.00000000E+00  0.00000000E+00  0.00000000E+00
  0.00000000E+00  0.00000000E+00  0.00000000E+00
  0.00000000E+00  0.00000000E+00  0.00000000E+00
