Generated by VASPKIT code               
   1.00000000000000     
    12.7690000533999992    0.0000000000000000    0.0000000000000000
    -6.3845000266999996   11.0582784271999994    0.0000000000000000
     0.0000000000000000    0.0000000000000000   18.1282997130999988
   Mo   S    Pt   C    H 
    16    31     1     2     6
Selective dynamics
Direct
  0.0749912739813752  0.1602202115977178  0.1400159212656575   F   F   F
  0.3248559258755108  0.1603219303312571  0.1410976893631926   F   F   F
  0.5745214840333404  0.1611673646724867  0.1407641897096141   F   F   F
  0.8245376275878726  0.1602549082896232  0.1395578836765878   F   F   F
  0.0752736774315395  0.4103703475724387  0.1396652985251450   F   F   F
  0.3268053738622569  0.4114973266878721  0.1410785414882554   F   F   F
  0.5784545631923805  0.4145558765810762  0.1416381892663949   F   F   F
  0.8241899994061441  0.4101025388702695  0.1381007268392267   F   F   F
  0.0746054365713320  0.6596821734807392  0.1383517065004725   F   F   F
  0.3251063492328967  0.6605670867370534  0.1403433237659115   F   F   F
  0.5776678293635271  0.6609122308680071  0.1406731691467371   F   F   F
  0.8267814350607026  0.6610970701140673  0.1321512823179560   F   F   F
  0.0731450596619823  0.9094554480934463  0.1393107153540072   F   F   F
  0.3243349782449130  0.9104043471018244  0.1404029693069191   F   F   F
  0.5741356554453176  0.9105347178309913  0.1400350110224693   F   F   F
  0.8232189259646319  0.9093985235443043  0.1379204362845812   F   F   F
  0.1591486712101684  0.0775545910101982  0.0544202274115264   F   F   F
  0.1562581373151346  0.0752988752273538  0.2261371721556316   F   F   F
  0.4080263884905548  0.0776287326847296  0.0549557711203263   F   F   F
  0.4078543186383499  0.0768148522749073  0.2268867856720860   F   F   F
  0.6570548018805198  0.0774482121272300  0.0542638269362001   F   F   F
  0.6583683884586691  0.0774074732990186  0.2260217711380577   F   F   F
  0.9086412033132376  0.0780139192612452  0.0534312264277901   F   F   F
  0.9070368869267966  0.0754626481011087  0.2248805844835928   F   F   F
  0.1602969828751952  0.3276136409187629  0.0545516230246150   F   F   F
  0.1582718348122398  0.3270802746185097  0.2260908636260908   F   F   F
  0.4113163306420518  0.3284179098896658  0.0558236731526520   F   F   F
  0.4106413120060992  0.3288684596086853  0.2263051498439239   F   F   F
  0.6553101359267828  0.3277018449204121  0.0542405611740406   F   F   F
  0.6606298885847082  0.3308047862186285  0.2259972234105661   F   F   F
  0.9086618305931395  0.3261679226372181  0.0532888553689190   F   F   F
  0.9077203787416508  0.3274550614881022  0.2248876973129015   F   F   F
  0.1596774259723830  0.5767352613093735  0.0535655691532497   F   F   F
  0.1571122867632724  0.5769447383503490  0.2255028787842548   F   F   F
  0.4107475753523815  0.5782832653426766  0.0550129392993597   F   F   F
  0.4109426113002428  0.5785486043950456  0.2259590029212433   F   F   F
  0.6560790668427217  0.5761425043481552  0.0533642181351368   F   F   F
  0.9102383064229045  0.5749840399583590  0.0496753686407700   F   F   F
  0.9035820817145108  0.5768666488243070  0.2217163213511384   F   F   F
  0.1585373244395143  0.8277280915507248  0.0536821494068604   F   F   F
  0.1559718864729120  0.8255006710244075  0.2251900228083912   F   F   F
  0.4075599818611195  0.8270201380383426  0.0543738184558578   F   F   F
  0.4077856453103337  0.8270936772412085  0.2263400799628812   F   F   F
  0.6551764996373137  0.8248202766239743  0.0533949061020920   F   F   F
  0.6588530338712317  0.8267887627731696  0.2251182619260490   F   F   F
  0.9098462644700760  0.8303020687657607  0.0499999772303568   F   F   F
  0.8992550864274733  0.8191573174177691  0.2230036672465872   F   F   F
  0.6846120040488017  0.5968663235214180  0.2524532592814381   F   F   F
  0.6733016432614463  0.6144201448512803  0.3697844027328117   T   T   T
  0.7784510664969062  0.6052731955840471  0.4026969869422388   T   T   T
  0.6893513305036336  0.7076646958855051  0.3686281775449416   T   T   T
  0.5898661541141834  0.5601222394415544  0.4013168861147918   T   T   T
  0.7646008835750848  0.5132936545474820  0.3988549633770333   T   T   T
  0.7873246605864210  0.6294196635927847  0.4617936465541987   T   T   T
  0.8652449384965948  0.6671824960240187  0.3761763936517468   T   T   T
  0.5706637156811212  0.5135991077842235  0.3010765884437066   T   T   T
 
  0.00000000E+00  0.00000000E+00  0.00000000E+00
  0.00000000E+00  0.00000000E+00  0.00000000E+00
  0.00000000E+00  0.00000000E+00  0.00000000E+00
  0.00000000E+00  0.00000000E+00  0.00000000E+00
  0.00000000E+00  0.00000000E+00  0.00000000E+00
  0.00000000E+00  0.00000000E+00  0.00000000E+00
  0.00000000E+00  0.00000000E+00  0.00000000E+00
  0.00000000E+00  0.00000000E+00  0.00000000E+00
  0.00000000E+00  0.00000000E+00  0.00000000E+00
  0.00000000E+00  0.00000000E+00  0.00000000E+00
  0.00000000E+00  0.00000000E+00  0.00000000E+00
  0.00000000E+00  0.00000000E+00  0.00000000E+00
  0.00000000E+00  0.00000000E+00  0.00000000E+00
  0.00000000E+00  0.00000000E+00  0.00000000E+00
  0.00000000E+00  0.00000000E+00  0.00000000E+00
  0.00000000E+00  0.00000000E+00  0.00000000E+00
  0.00000000E+00  0.00000000E+00  0.00000000E+00
  0.00000000E+00  0.00000000E+00  0.00000000E+00
  0.00000000E+00  0.00000000E+00  0.00000000E+00
  0.00000000E+00  0.00000000E+00  0.00000000E+00
  0.00000000E+00  0.00000000E+00  0.00000000E+00
  0.00000000E+00  0.00000000E+00  0.00000000E+00
  0.00000000E+00  0.00000000E+00  0.00000000E+00
  0.00000000E+00  0.00000000E+00  0.00000000E+00
  0.00000000E+00  0.00000000E+00  0.00000000E+00
  0.00000000E+00  0.00000000E+00  0.00000000E+00
  0.00000000E+00  0.00000000E+00  0.00000000E+00
  0.00000000E+00  0.00000000E+00  0.00000000E+00
  0.00000000E+00  0.00000000E+00  0.00000000E+00
  0.00000000E+00  0.00000000E+00  0.00000000E+00
  0.00000000E+00  0.00000000E+00  0.00000000E+00
  0.00000000E+00  0.00000000E+00  0.00000000E+00
  0.00000000E+00  0.00000000E+00  0.00000000E+00
  0.00000000E+00  0.00000000E+00  0.00000000E+00
  0.00000000E+00  0.00000000E+00  0.00000000E+00
  0.00000000E+00  0.00000000E+00  0.00000000E+00
  0.00000000E+00  0.00000000E+00  0.00000000E+00
  0.00000000E+00  0.00000000E+00  0.00000000E+00
  0.00000000E+00  0.00000000E+00  0.00000000E+00
  0.00000000E+00  0.00000000E+00  0.00000000E+00
  0.00000000E+00  0.00000000E+00  0.00000000E+00
  0.00000000E+00  0.00000000E+00  0.00000000E+00
  0.00000000E+00  0.00000000E+00  0.00000000E+00
  0.00000000E+00  0.00000000E+00  0.00000000E+00
  0.00000000E+00  0.00000000E+00  0.00000000E+00
  0.00000000E+00  0.00000000E+00  0.00000000E+00
  0.00000000E+00  0.00000000E+00  0.00000000E+00
  0.00000000E+00  0.00000000E+00  0.00000000E+00
  0.00000000E+00  0.00000000E+00  0.00000000E+00
  0.00000000E+00  0.00000000E+00  0.00000000E+00
  0.00000000E+00  0.00000000E+00  0.00000000E+00
  0.00000000E+00  0.00000000E+00  0.00000000E+00
  0.00000000E+00  0.00000000E+00  0.00000000E+00
  0.00000000E+00  0.00000000E+00  0.00000000E+00
  0.00000000E+00  0.00000000E+00  0.00000000E+00
  0.00000000E+00  0.00000000E+00  0.00000000E+00
