POSCARPt                                
   1.00000000000000     
    12.7690000533999992    0.0000000000000000    0.0000000000000000
    -6.3845000266999996   11.0582784271999994    0.0000000000000000
     0.0000000000000000    0.0000000000000000   18.1282997130999988
   Mo   S    Pt   C    H 
    16    31     1     2     6
Direct
  0.0875009558308016  0.1652073666864515  0.1397427816714732
  0.3385928477543362  0.1667209039557407  0.1406507340735243
  0.5884186624365972  0.1666706261037640  0.1407434321144221
  0.8377352483639134  0.1651591932903520  0.1398001878860361
  0.0877090609016976  0.4154512703155562  0.1378384380891073
  0.3372630271025479  0.4161616947025401  0.1391449089843144
  0.5892669573432879  0.4195211198473315  0.1437748765943333
  0.8389043174272528  0.4160274767705101  0.1402878173391028
  0.0907347244463726  0.6669987445774785  0.1369994406387227
  0.3366410806000332  0.6663755725282167  0.1361342936859644
  0.5835311092635037  0.6639328354133889  0.1417226356104296
  0.8385059248678642  0.6635401723690728  0.1435009003963562
  0.0881896929972674  0.9154534634021760  0.1401295653799950
  0.3388556792415964  0.9172095950470658  0.1387095447297437
  0.5879612151560099  0.9158953353375631  0.1395800163825916
  0.8373098140652683  0.9140727704688452  0.1414298369523101
  0.1718257570229112  0.0825090304405535  0.0543467153238358
  0.1710825865727224  0.0824959327397498  0.2259889628163315
  0.4229538536227490  0.0854356641382661  0.0541369712223316
  0.4212296786443712  0.0822583776653296  0.2260765047208531
  0.6710755013267511  0.0830409597610180  0.0541332632671423
  0.6714682836832220  0.0820136744700750  0.2260086195799091
  0.9199831202708558  0.0798215984471989  0.0545285964192359
  0.9213393581173146  0.0824641619048449  0.2261121927823091
  0.1709812783802184  0.3308594213452757  0.0528259620866569
  0.1703598912462745  0.3326664359176398  0.2247350531484139
  0.4258420412353146  0.3348425565540074  0.0555455744972596
  0.4207937854735101  0.3346290608964057  0.2265483686354447
  0.6696502520129450  0.3353199496060574  0.0560301808046605
  0.6727714276658439  0.3335855950656613  0.2268019055069264
  0.9194485150209389  0.3312390023854986  0.0532355523365883
  0.9226882676943510  0.3320752331704666  0.2251463882032675
  0.1702376275441577  0.5811919487482434  0.0503993246247038
  0.1725478018981927  0.5829747958152850  0.2229202170911649
  0.4221867239981029  0.5823762726492734  0.0525036327963665
  0.4145192129191076  0.5823600847504116  0.2232826521010997
  0.6716122403052709  0.5834947344889874  0.0596287078426216
  0.9195481828100478  0.5830190857158775  0.0544089848092768
  0.9314894824616711  0.5816115916342371  0.2254657026783384
  0.1721975760285890  0.8350532934797634  0.0524352417008601
  0.1729063691839403  0.8323343013458463  0.2244937229981819
  0.4231633931708759  0.8352861348658157  0.0521061016581876
  0.4200378522054504  0.8315127678950908  0.2239885558955636
  0.6711857485523920  0.8306868688500433  0.0551490077133460
  0.6697406614877368  0.8302834583397128  0.2265228073608744
  0.9187547186810205  0.8283054315417427  0.0562633091489713
  0.9213376059955386  0.8312003218059558  0.2272269179818991
  0.6688554579968907  0.5881812310350685  0.2593666113917817
  0.5542213182608975  0.5841807551385675  0.3544222231958158
  0.6492228980782186  0.5740279796914920  0.3873651056144370
  0.5571086035757169  0.6709280625169903  0.3555694724104306
  0.4649669183622673  0.5039049594222762  0.3503712111030904
  0.6310739314436292  0.4861858515410803  0.4083833293532234
  0.7234830609496476  0.6528041158968734  0.4143769122422613
  0.7463149445753717  0.5701216455449878  0.3288226844001142
  0.7909673814834000  0.5781813402220407  0.2702072467505444
 
  0.15928206E-03 -0.81781137E-03  0.92668362E-03
 -0.61229543E-04  0.12621886E-03  0.19061218E-02
  0.21124501E-03  0.76725685E-04 -0.17281968E-02
 -0.81492316E-03  0.22734442E-03  0.16970240E-03
 -0.43115987E-03  0.22425380E-03 -0.10756768E-02
  0.18795383E-02 -0.24188990E-02 -0.11151596E-02
  0.11424242E-02 -0.19136724E-02 -0.49219500E-02
 -0.57585185E-02  0.91138663E-03 -0.59393899E-02
  0.38513130E-02  0.40251411E-02 -0.13050613E-01
 -0.40543664E-03  0.35741182E-03 -0.12541718E-02
 -0.66273926E-02  0.50606308E-02  0.73643249E-02
 -0.38858156E-01  0.15788174E-01 -0.27196198E-01
 -0.27232879E-02 -0.19399677E-02  0.17580015E-02
  0.14381738E-03  0.10937988E-02 -0.65150500E-03
  0.96002697E-03  0.55223665E-03  0.70379802E-03
  0.45536547E-02 -0.25809770E-02 -0.15447051E-02
  0.78960832E-03 -0.68284887E-03  0.16098902E-02
 -0.37136023E-03 -0.12149270E-02  0.14423950E-02
 -0.47395456E-03  0.44185258E-03  0.12494111E-03
  0.27066482E-02  0.17443515E-02  0.29118423E-03
  0.10035472E-02 -0.10436933E-03 -0.12742817E-04
 -0.28701095E-02  0.17411205E-03  0.83881955E-03
 -0.29480729E-03  0.10099374E-02  0.42112486E-03
  0.15831812E-03 -0.11061740E-02 -0.31644368E-03
  0.47116719E-03 -0.13414991E-02  0.57835594E-03
 -0.44165864E-03  0.29741870E-03 -0.47855667E-03
 -0.11417544E-02 -0.19728901E-02  0.30139111E-03
  0.45964967E-02  0.70341600E-02  0.15917493E-02
 -0.48508433E-03 -0.12563146E-02 -0.38263437E-02
 -0.18120704E-02 -0.25113523E-03 -0.21927770E-02
 -0.13663034E-02  0.20925929E-03 -0.28831199E-04
 -0.38028079E-02  0.42867466E-02 -0.13523962E-02
  0.40698386E-02 -0.24941993E-02 -0.46609566E-02
 -0.24185589E-02  0.12365630E-02 -0.34187090E-02
 -0.15836681E-02 -0.18186494E-02 -0.17255737E-02
  0.32931044E-02  0.18083988E-02 -0.93839304E-02
 -0.19965705E-01 -0.43237197E-02 -0.96539794E-02
 -0.75913021E-02  0.35800416E-02 -0.99698145E-02
 -0.98306836E-02  0.23203124E-01 -0.47048139E-01
  0.34524232E-02  0.51056593E-02 -0.58180632E-02
 -0.10028295E-03 -0.30124158E-02 -0.27168554E-02
  0.10332243E-02  0.41552697E-03  0.59507582E-04
 -0.32449540E-03  0.32100078E-03  0.27775906E-03
 -0.15362282E-02 -0.12274506E-02 -0.14765795E-02
  0.41166113E-02 -0.31103316E-02  0.12448374E-02
  0.22434423E-02  0.72198118E-02 -0.92212044E-02
 -0.11604210E-01 -0.13375050E-01  0.19502211E-02
  0.26771852E-01  0.15934071E-01 -0.11707835E-01
 -0.12500498E+00  0.51035873E-02  0.15634836E+00
 -0.24836101E+00  0.16153049E-01  0.13202443E+00
 -0.73672080E-01  0.27389917E-01 -0.28031858E-01
 -0.68966063E-01 -0.83014435E-02 -0.32370032E-01
 -0.20437584E-01  0.11166401E-01 -0.89747250E-01
 -0.23688504E-01  0.20486314E-01 -0.81534644E-01
  0.54919545E+00 -0.35047794E-01 -0.46651197E+00
  0.88017389E-01 -0.10247355E+00  0.55152506E+00
