POSCARPt                                
   1.00000000000000     
    12.7690000533999992    0.0000000000000000    0.0000000000000000
    -6.3845000266999996   11.0582784271999994    0.0000000000000000
     0.0000000000000000    0.0000000000000000   18.1282997130999988
   Mo   S    Pt   C    H 
    16    31     1     2     4
Direct
  0.0835924144383207  0.1706637819922178  0.1383245883557889
  0.3323324888927334  0.1688943142060394  0.1373483540253457
  0.5831294136606602  0.1689812640973065  0.1374920039186312
  0.8336893032274880  0.1706962733538750  0.1382847673322813
  0.0836313081197224  0.4206977062979219  0.1394881140300459
  0.3337666484751280  0.4203151461864285  0.1401449166107481
  0.5819413184159713  0.4175620469597069  0.1427698444110892
  0.8329376514334367  0.4203021647563793  0.1401521923429195
  0.0829398435411370  0.6703911887269535  0.1403248558482530
  0.3341378516544695  0.6704324322144954  0.1404291817965783
  0.5862195633527709  0.6708718332240392  0.1437686625461954
  0.8314999872675555  0.6711016097637732  0.1436479363750946
  0.0843919363450767  0.9208630481824350  0.1384185757916474
  0.3331918037356441  0.9196825315249567  0.1383929049498488
  0.5831369218946438  0.9207794589115236  0.1385243790251360
  0.8338195714230290  0.9210522013054521  0.1398429259281801
  0.1658194008706553  0.0867064545767139  0.0517379310749998
  0.1672843778092665  0.0874800673994292  0.2239517725728323
  0.4163031079713584  0.0858087678790220  0.0516461792280712
  0.4165626268933091  0.0865897438704752  0.2236027465077867
  0.6673669667057742  0.0865774628294707  0.0517888385406909
  0.6669467322148771  0.0875026784112398  0.2240067387165175
  0.9164655255201821  0.0863416828734251  0.0526871404807648
  0.9176385115884115  0.0887802795507043  0.2246338446134582
  0.1680596074306131  0.3386901534046743  0.0533568199302172
  0.1659443770406817  0.3363721558372997  0.2251752485181733
  0.4186659475858328  0.3388066927571325  0.0540601828921405
  0.4118502832588177  0.3321343948304152  0.2246519948956891
  0.6664700667247239  0.3387052438388560  0.0541369831543059
  0.6666850536623979  0.3325391183992064  0.2249258300964214
  0.9171373412420680  0.3388065074410727  0.0533060374599377
  0.9168572943337403  0.3364376912532536  0.2251344734816842
  0.1673409339037821  0.5878261653457137  0.0542242313758468
  0.1666842251110058  0.5868216724359206  0.2259239771094724
  0.4215060082164396  0.5891042652910587  0.0560234149843875
  0.4178122413426816  0.5863784561987844  0.2269669166843850
  0.6661684340174500  0.5856405391334509  0.0599113997810964
  0.9141762342996548  0.5889949992029591  0.0559075588389833
  0.9151749832356832  0.5864534843789154  0.2268517228360501
  0.1656549698753028  0.8351154821279987  0.0529968000536018
  0.1676466708608089  0.8380050602552963  0.2250040113273338
  0.4162337858288587  0.8351448486783769  0.0530662609905408
  0.4170516258412876  0.8381639885165539  0.2251141769863163
  0.6655695829997513  0.8331454701429961  0.0549082428347876
  0.6676954765962468  0.8424968595124066  0.2258647349622820
  0.9143152293552372  0.8334056376449341  0.0548283737488710
  0.9216773961728206  0.8427274094364385  0.2257560897853709
  0.6637448003063591  0.5808546035199841  0.2593403174814268
  0.5953817143892099  0.4518380290102931  0.3464658432487997
  0.6453291159213501  0.5515025368379644  0.3818861084317384
  0.5445351367053856  0.3543715666702676  0.3503677406620467
  0.6659326080361661  0.5981820183510106  0.4343922305298091
  0.7111043063634542  0.6727141758730728  0.3360078426137453
  0.7368291718900541  0.7255066385793576  0.2814650692811925
 
             NaN             NaN             NaN
             NaN             NaN             NaN
             NaN             NaN             NaN
             NaN             NaN             NaN
             NaN             NaN             NaN
             NaN             NaN             NaN
             NaN             NaN             NaN
             NaN             NaN             NaN
             NaN             NaN             NaN
             NaN             NaN             NaN
             NaN             NaN             NaN
             NaN             NaN             NaN
             NaN             NaN             NaN
             NaN             NaN             NaN
             NaN             NaN             NaN
             NaN             NaN             NaN
             NaN             NaN             NaN
             NaN             NaN             NaN
             NaN             NaN             NaN
             NaN             NaN             NaN
             NaN             NaN             NaN
             NaN             NaN             NaN
             NaN             NaN             NaN
             NaN             NaN             NaN
             NaN             NaN             NaN
             NaN             NaN             NaN
             NaN             NaN             NaN
             NaN             NaN             NaN
             NaN             NaN             NaN
             NaN             NaN             NaN
             NaN             NaN             NaN
             NaN             NaN             NaN
             NaN             NaN             NaN
             NaN             NaN             NaN
             NaN             NaN             NaN
             NaN             NaN             NaN
             NaN             NaN             NaN
             NaN             NaN             NaN
             NaN             NaN             NaN
             NaN             NaN             NaN
             NaN             NaN             NaN
             NaN             NaN             NaN
             NaN             NaN             NaN
             NaN             NaN             NaN
             NaN             NaN             NaN
             NaN             NaN             NaN
             NaN             NaN             NaN
             NaN             NaN             NaN
             NaN             NaN             NaN
             NaN             NaN             NaN
             NaN             NaN             NaN
             NaN             NaN             NaN
             NaN             NaN             NaN
             NaN             NaN             NaN
