POSCARxPz1                              
   1.00000000000000     
    12.7690000533999992    0.0000000000000000    0.0000000000000000
    -6.3845000266999996   11.0582784271999994    0.0000000000000000
     0.0000000000000000    0.0000000000000000   18.1282997130999988
   Mo   S    Pt   C    H 
    16    31     1     2     6
Direct
  0.0742611016655827  0.1595930965091121  0.1402068917204057
  0.3240008299813801  0.1594794825301143  0.1411666750327281
  0.5739106573178357  0.1608288261220297  0.1408042397416897
  0.8239607695574415  0.1598038099192923  0.1396355336719790
  0.0746890191249271  0.4098908619937395  0.1397237260910440
  0.3261816090734128  0.4110549111815645  0.1410967154377632
  0.5781232358325897  0.4143510434929397  0.1415078633762653
  0.8235730417075543  0.4095773740436927  0.1381265201506382
  0.0740351001613201  0.6591794176879510  0.1384957999734480
  0.3244324572189167  0.6601678001303711  0.1403398620156330
  0.5771479225089964  0.6605055553995575  0.1409006596441659
  0.8256769751162801  0.6600185745318990  0.1323207105245230
  0.0719434460786044  0.9084029154435135  0.1398768760719967
  0.3236930324125257  0.9100037286888787  0.1405435604120072
  0.5734435897050588  0.9102317134081247  0.1400614714385062
  0.8222402146898850  0.9087245311297943  0.1382303496589144
  0.1580361395576488  0.0763507193616721  0.0547953693291641
  0.1554377174181804  0.0746636295325102  0.2263697004069984
  0.4073728127820312  0.0771333367266914  0.0550225088994912
  0.4073777336936606  0.0764336224687938  0.2270043613555153
  0.6565420557854289  0.0771710713957110  0.0543187256641836
  0.6578006120613050  0.0770939329951262  0.2260648385801104
  0.9079699922504800  0.0773425820092141  0.0536316120313225
  0.9063228004293633  0.0750078814681396  0.2250442145489015
  0.1596195603355472  0.3269556306273200  0.0546692221933284
  0.1577491471586120  0.3266512040602627  0.2261618805423226
  0.4106112123447545  0.3278332412945933  0.0559078366063520
  0.4097335721910718  0.3279961869534220  0.2260995491299418
  0.6546322538523690  0.3273178673396392  0.0542426350714796
  0.6600762188268589  0.3304724439409025  0.2260410654012916
  0.9081192711096189  0.3256594219087526  0.0533529746909948
  0.9071405041387830  0.3269622873855989  0.2249604460807189
  0.1590020401155025  0.5762021821399026  0.0535877954293452
  0.1566662657732687  0.5764912734393450  0.2255569945632559
  0.4103323494799749  0.5779710839596333  0.0551625758961484
  0.4099919570387371  0.5781156996830465  0.2259739215904014
  0.6553976247090543  0.5758337530755678  0.0533185440418316
  0.9096671301579463  0.5746146158645961  0.0497907359131668
  0.9031044919551751  0.5760229480606365  0.2217867640735876
  0.1576829188919980  0.8273590670896189  0.0539594788885083
  0.1554136235993605  0.8248771409865806  0.2254574534665466
  0.4068752915040589  0.8266825315886827  0.0544130356264648
  0.4072484703011803  0.8266704010614987  0.2263692360300160
  0.6544629215514582  0.8243272610490877  0.0536094931479393
  0.6578001391013943  0.8264860119899970  0.2252818223182716
  0.9089280077689522  0.8295321518472473  0.0504311500607602
  0.8969894198811162  0.8175092541600619  0.2236476362541801
  0.6846522750906409  0.5978699369172426  0.2538967071113943
  0.6820468810543926  0.6219392070292271  0.3693040732420679
  0.7842005106498074  0.6082731191451614  0.4026901810020401
  0.7001807195562725  0.7159267701668284  0.3708458777997950
  0.5961432790507105  0.5656235496183821  0.3979669485966266
  0.7693991747319191  0.5162438368362047  0.3959363438419760
  0.7903801583092253  0.6269656152965962  0.4625604437178715
  0.8726646757351421  0.6715351242065072  0.3784342170505980
  0.5614744979048401  0.5058430131073147  0.2901495648433366
 
  0.00000000E+00  0.00000000E+00  0.00000000E+00
  0.00000000E+00  0.00000000E+00  0.00000000E+00
  0.00000000E+00  0.00000000E+00  0.00000000E+00
  0.00000000E+00  0.00000000E+00  0.00000000E+00
  0.00000000E+00  0.00000000E+00  0.00000000E+00
  0.00000000E+00  0.00000000E+00  0.00000000E+00
  0.00000000E+00  0.00000000E+00  0.00000000E+00
  0.00000000E+00  0.00000000E+00  0.00000000E+00
  0.00000000E+00  0.00000000E+00  0.00000000E+00
  0.00000000E+00  0.00000000E+00  0.00000000E+00
  0.00000000E+00  0.00000000E+00  0.00000000E+00
  0.00000000E+00  0.00000000E+00  0.00000000E+00
  0.00000000E+00  0.00000000E+00  0.00000000E+00
  0.00000000E+00  0.00000000E+00  0.00000000E+00
  0.00000000E+00  0.00000000E+00  0.00000000E+00
  0.00000000E+00  0.00000000E+00  0.00000000E+00
  0.00000000E+00  0.00000000E+00  0.00000000E+00
  0.00000000E+00  0.00000000E+00  0.00000000E+00
  0.00000000E+00  0.00000000E+00  0.00000000E+00
  0.00000000E+00  0.00000000E+00  0.00000000E+00
  0.00000000E+00  0.00000000E+00  0.00000000E+00
  0.00000000E+00  0.00000000E+00  0.00000000E+00
  0.00000000E+00  0.00000000E+00  0.00000000E+00
  0.00000000E+00  0.00000000E+00  0.00000000E+00
  0.00000000E+00  0.00000000E+00  0.00000000E+00
  0.00000000E+00  0.00000000E+00  0.00000000E+00
  0.00000000E+00  0.00000000E+00  0.00000000E+00
  0.00000000E+00  0.00000000E+00  0.00000000E+00
  0.00000000E+00  0.00000000E+00  0.00000000E+00
  0.00000000E+00  0.00000000E+00  0.00000000E+00
  0.00000000E+00  0.00000000E+00  0.00000000E+00
  0.00000000E+00  0.00000000E+00  0.00000000E+00
  0.00000000E+00  0.00000000E+00  0.00000000E+00
  0.00000000E+00  0.00000000E+00  0.00000000E+00
  0.00000000E+00  0.00000000E+00  0.00000000E+00
  0.00000000E+00  0.00000000E+00  0.00000000E+00
  0.00000000E+00  0.00000000E+00  0.00000000E+00
  0.00000000E+00  0.00000000E+00  0.00000000E+00
  0.00000000E+00  0.00000000E+00  0.00000000E+00
  0.00000000E+00  0.00000000E+00  0.00000000E+00
  0.00000000E+00  0.00000000E+00  0.00000000E+00
  0.00000000E+00  0.00000000E+00  0.00000000E+00
  0.00000000E+00  0.00000000E+00  0.00000000E+00
  0.00000000E+00  0.00000000E+00  0.00000000E+00
  0.00000000E+00  0.00000000E+00  0.00000000E+00
  0.00000000E+00  0.00000000E+00  0.00000000E+00
  0.00000000E+00  0.00000000E+00  0.00000000E+00
  0.00000000E+00  0.00000000E+00  0.00000000E+00
  0.00000000E+00  0.00000000E+00  0.00000000E+00
  0.00000000E+00  0.00000000E+00  0.00000000E+00
  0.00000000E+00  0.00000000E+00  0.00000000E+00
  0.00000000E+00  0.00000000E+00  0.00000000E+00
  0.00000000E+00  0.00000000E+00  0.00000000E+00
  0.00000000E+00  0.00000000E+00  0.00000000E+00
  0.00000000E+00  0.00000000E+00  0.00000000E+00
  0.00000000E+00  0.00000000E+00  0.00000000E+00
