POSCARPt                                
   1.00000000000000     
    12.7690000533999992    0.0000000000000000    0.0000000000000000
    -6.3845000266999996   11.0582784271999994    0.0000000000000000
     0.0000000000000000    0.0000000000000000   18.1282997130999988
   Mo   S    Pt   C    H 
    16    31     1     2     4
Direct
   0.08106293  0.16779048  0.13793759
   0.33096432  0.16742760  0.13895580
   0.57964701  0.16569817  0.13750628
   0.83016357  0.16689962  0.13707735
   0.08035842  0.41755999  0.13803139
   0.33252437  0.41823549  0.13970816
   0.58335138  0.41955470  0.13976747
   0.82831973  0.41645846  0.13590181
   0.07802631  0.66642919  0.13801051
   0.33015267  0.66733340  0.13955843
   0.58442625  0.66676988  0.14013751
   0.83196490  0.66908318  0.13141174
   0.08036367  0.91781081  0.13724499
   0.32983050  0.91659210  0.13878304
   0.58013267  0.91573911  0.13875204
   0.82997755  0.91671816  0.13661151
   0.16560317  0.08567258  0.05219569
   0.16297850  0.08338495  0.22408092
   0.41243929  0.08291232  0.05249443
   0.41414570  0.08357984  0.22448601
   0.66253951  0.08159004  0.05179831
   0.66432574  0.08359598  0.22355922
   0.91462317  0.08472404  0.05136278
   0.91330579  0.08346258  0.22287477
   0.16631748  0.33563467  0.05289409
   0.16349282  0.33406612  0.22432286
   0.41683276  0.33565005  0.05391972
   0.41631233  0.33503739  0.22478419
   0.66035879  0.33344775  0.05152521
   0.66414846  0.33263036  0.22278601
   0.91414141  0.33371879  0.05120447
   0.91217002  0.33388607  0.22257916
   0.16431921  0.58477715  0.05286096
   0.16127436  0.58338511  0.22444693
   0.41689860  0.58568119  0.05449701
   0.41610999  0.58476541  0.22481857
   0.66185112  0.58269610  0.05238936
   0.91473611  0.58305858  0.04871319
   0.90337025  0.58199692  0.22201679
   0.16366016  0.83332969  0.05238189
   0.16181536  0.83322583  0.22387392
   0.41313407  0.83273398  0.05325064
   0.41369084  0.83400912  0.22514505
   0.66116207  0.82987283  0.05260322
   0.66643895  0.83271516  0.22443975
   0.91616439  0.83788863  0.04856269
   0.90953773  0.83017324  0.22091584
   0.69226182  0.58799935  0.25428905
   0.62630699  0.43312596  0.39259219
   0.68463779  0.54404793  0.36319248
   0.64421521  0.41588276  0.44909124
   0.74633732  0.62185260  0.39744716
   0.57344851  0.56504279  0.29396474
   0.56031135  0.35432052  0.36130414