POSCARPt                                
   1.00000000000000     
    12.7690000533999992    0.0000000000000000    0.0000000000000000
    -6.3845000266999996   11.0582784271999994    0.0000000000000000
     0.0000000000000000    0.0000000000000000   18.1282997130999988
   Mo   S    Cu   C    H 
    16    31     1     2     4
Direct
  0.0813988974751968  0.1681496621831264  0.1399515086397250
  0.3311554036734160  0.1673604443233193  0.1391300456423473
  0.5815852500087706  0.1674931475971050  0.1405307865332140
  0.8312600257632882  0.1681165658097194  0.1408549816648421
  0.0811624600708848  0.4180717220853661  0.1413931611501336
  0.3319987044564871  0.4182693674485514  0.1406665435868801
  0.5799295155391067  0.4157062764611826  0.1428136083725738
  0.8306972086612265  0.4187652628942194  0.1425917088446947
  0.0810884459349589  0.6679398828251953  0.1425300149833951
  0.3315446663910019  0.6672283834922631  0.1418878999036095
  0.5785881465736877  0.6661958174567382  0.1405510219683583
  0.8323501708520920  0.6680807305437448  0.1449910054262079
  0.0839218922253112  0.9193838712961125  0.1397692777531385
  0.3317657992871276  0.9174345081440609  0.1406384646449237
  0.5816032811892682  0.9178094237320100  0.1409221131773478
  0.8316504907916079  0.9180309638403981  0.1416104559544381
  0.1645907185454952  0.0848651978509879  0.0532297976516910
  0.1661502175345926  0.0861014493104958  0.2255079255389388
  0.4154522404898623  0.0838127796756126  0.0541683484827330
  0.4144011468430573  0.0845193183796091  0.2258990254064108
  0.6649282757415151  0.0842323833111180  0.0546813604603177
  0.6647950595552823  0.0845697923249251  0.2267433491473289
  0.9137810999223653  0.0838275135825481  0.0548185489214719
  0.9154124570432562  0.0857588847355812  0.2265611337300734
  0.1649103470640217  0.3356978508121724  0.0547638464752894
  0.1647108908885568  0.3340500288075606  0.2263247941453630
  0.4165525577785855  0.3357904594837232  0.0543587835201656
  0.4113654132176365  0.3316151802115605  0.2257320752401359
  0.6647211422020507  0.3357664589338227  0.0556489306840492
  0.6639052995165045  0.3330843191156834  0.2275900456867629
  0.9140734486964350  0.3360262308316909  0.0557837491544452
  0.9145122259337697  0.3341608635034469  0.2272852285999664
  0.1644533795894922  0.5850508945360811  0.0561320637723233
  0.1647928010071945  0.5839868890792447  0.2278081904392721
  0.4151907075739053  0.5854436570696737  0.0548589185492169
  0.4162709400372644  0.5826958060537275  0.2279662380475115
  0.6659367852246307  0.5843568447019051  0.0601303342303666
  0.9131095964704203  0.5864348698561329  0.0576217680342873
  0.9138956920313566  0.5837717476658666  0.2297985706245217
  0.1647475448130019  0.8326892153212120  0.0549322474125302
  0.1662405633589285  0.8361189058820009  0.2269067180283094
  0.4148583740008162  0.8332409097508708  0.0552981090458149
  0.4151164758715987  0.8348747762380686  0.2269878733911928
  0.6647018825324787  0.8332985514694158  0.0553117781947352
  0.6636711836109079  0.8331642358207137  0.2266237698151786
  0.9134308178546182  0.8323166121029071  0.0565045974249304
  0.9236015577844081  0.8437935325297047  0.2274179222313964
  0.6532765649356994  0.5661352893683252  0.2550024639216388
  0.5952840843149041  0.4748970700477953  0.3505489111431437
  0.6608923571821553  0.5831131911648331  0.3711595217784341
  0.5361786466304719  0.3799352093294434  0.3615733342188694
  0.6986542104343043  0.6505557805189482  0.4144475781694446
  0.7318340077599603  0.6780134386992174  0.3088492216284057
  0.7677336627778774  0.6988847971325036  0.2534248364708631
 
  0.71972890E-03 -0.43854117E-03  0.11223958E-02
  0.20215050E-02  0.55576818E-02  0.27057806E-02
 -0.78623249E-03  0.41062997E-02  0.37141962E-02
 -0.13429452E-03 -0.68430037E-03  0.11710424E-02
 -0.61399747E-03  0.76570533E-03  0.12959456E-02
 -0.35614872E-02  0.74440739E-02 -0.31834619E-02
  0.21023158E-01  0.15821518E-01 -0.30498786E-01
  0.14032757E-03  0.86881780E-02 -0.79026234E-02
 -0.47157091E-03 -0.17132427E-02  0.16300327E-02
 -0.69266506E-03 -0.42078161E-03  0.16080444E-03
 -0.44298291E-02 -0.15193147E-01 -0.11782902E-01
  0.36677500E-01 -0.62968325E-01 -0.79370846E-01
  0.12641292E-01  0.97698540E-02 -0.12917756E-01
  0.14215564E-02 -0.52809882E-03  0.35308867E-03
 -0.16342240E-02 -0.89307860E-04 -0.21489535E-02
  0.30500808E-03 -0.70627796E-02  0.10595152E-02
  0.46181175E-02  0.89170458E-02 -0.39026122E-02
  0.17139300E-02  0.87572488E-03  0.23688571E-04
  0.20565440E-03  0.16188970E-02  0.31068866E-02
 -0.12695392E-02  0.33902601E-03  0.27302237E-02
 -0.12385889E-02  0.13628048E-02  0.11408827E-02
 -0.34482347E-03  0.91051223E-04  0.68515782E-03
 -0.38015189E-03 -0.29601413E-02  0.28867981E-02
  0.15485379E-02 -0.49684919E-02  0.99267816E-03
 -0.16783046E-02 -0.86093762E-03  0.82241676E-03
  0.30687008E-03  0.25962392E-03 -0.65356815E-03
 -0.32084767E-02 -0.29558524E-04 -0.35176808E-02
  0.11119656E-01  0.25784965E-01 -0.95658036E-02
  0.29516878E-02 -0.40309237E-02 -0.11737081E-01
 -0.64410255E-02  0.26927374E-01 -0.30077038E-02
  0.24164488E-02 -0.20514089E-02 -0.28823178E-03
 -0.21903315E-02  0.19327182E-02 -0.13816248E-02
  0.34276080E-03  0.10361181E-02  0.32377076E-03
 -0.80761542E-03 -0.11555973E-03  0.16222864E-02
 -0.65192084E-02 -0.31193265E-02 -0.62833761E-02
  0.23260125E-02 -0.26860299E-03  0.15697555E-02
 -0.23121893E-02 -0.42930240E-02 -0.31379024E-01
  0.16765583E-01  0.10169478E-02 -0.23612701E-01
 -0.19597602E-01 -0.34471478E-02  0.32519559E-02
  0.36122559E-02  0.10971458E-02 -0.21558489E-02
 -0.14184443E-02  0.71381788E-03 -0.22447566E-02
 -0.56510676E-03  0.20188276E-03 -0.35339221E-03
  0.50863438E-03 -0.48215245E-03  0.17065747E-03
  0.32180152E-04 -0.18993881E-02 -0.64296601E-03
 -0.42561821E-02 -0.10398457E-01 -0.11785617E-01
  0.59023828E-02  0.16598533E-02 -0.11229844E-01
  0.36204090E-01 -0.18035325E-01 -0.63482430E-01
 -0.16921848E-01 -0.25647997E-01  0.68650979E-01
 -0.21065040E-01 -0.12661449E+00  0.20005625E+00
 -0.78996947E-01 -0.27464141E+00  0.27884349E+00
  0.14177932E-02 -0.15621038E+00 -0.11089741E+00
  0.15187076E-01  0.94932608E-01 -0.11757545E+00
  0.11445919E+00  0.39128956E+00 -0.50848410E+00
 -0.11504383E+00  0.11720676E+00  0.49190100E+00
