Generated by VASPKIT code               
   1.00000000000000     
    12.7690000533999992    0.0000000000000000    0.0000000000000000
    -6.3845000266999996   11.0582784271999994    0.0000000000000000
     0.0000000000000000    0.0000000000000000   18.1282997130999988
   Mo   S    Cu   C    H 
    16    31     1     2     4
Direct
  0.0889058460921319  0.1699759909519190  0.1435959014259220
  0.3384408170192839  0.1690703667846976  0.1448783840214440
  0.5882966028827483  0.1690537060985095  0.1450023269108469
  0.8385432499474235  0.1700598258331136  0.1436940613632536
  0.0887789785086862  0.4203656913206458  0.1438061689213156
  0.3402579646801377  0.4197541003607844  0.1434921152036132
  0.5888683801959222  0.4206111869264592  0.1468758948079346
  0.8371364862324521  0.4203615316333120  0.1445426796695125
  0.0878275420270819  0.6697794098822032  0.1438226330933188
  0.3392165101930020  0.6693347391604083  0.1431906009447051
  0.5923620179289986  0.6744735813014683  0.1368633130171401
  0.8369282778621040  0.6740353421898783  0.1401403618509147
  0.0876326983439850  0.9193297283266937  0.1439202493797631
  0.3385299679382099  0.9193598836562625  0.1445432451647833
  0.5895352429317905  0.9193219623900682  0.1434422676670248
  0.8384421199225660  0.9188184704400533  0.1411800583466588
  0.1728516524138342  0.0865422989131104  0.0583132195125130
  0.1704151557536931  0.0855932086078460  0.2300770169960897
  0.4220115070185471  0.0862739216187476  0.0589718258614466
  0.4214442502821834  0.0852860257507920  0.2309604549931920
  0.6713670909549833  0.0870373856086863  0.0582471160077897
  0.6725828126772220  0.0849514889756036  0.2300469388398282
  0.9230992336241879  0.0885724911791522  0.0570871828770204
  0.9213043840079708  0.0849810928276733  0.2284470210443243
  0.1726187133749739  0.3369912906363844  0.0579996118315334
  0.1727023915727632  0.3372089413438218  0.2293130802662863
  0.4242132361212344  0.3363205765097783  0.0593194051842907
  0.4198458712329813  0.3357329717953462  0.2308007340787698
  0.6703324968595283  0.3368803076237565  0.0598305845690404
  0.6727913206395202  0.3350598578576634  0.2313165683121858
  0.9212820202702955  0.3375656863725287  0.0583968155913782
  0.9221558328717583  0.3371326327319256  0.2297346642817855
  0.1716168672588497  0.5868381094116820  0.0578241640436141
  0.1724450126201189  0.5867715499189428  0.2295729208050425
  0.4203723590328490  0.5851547935009739  0.0551229950384533
  0.4297882695959244  0.5883808405073946  0.2265490847968983
  0.6706042792510447  0.5829279655552247  0.0571337394664368
  0.9210110314323707  0.5867340656268089  0.0572048801864846
  0.9176142416646682  0.5892087891484761  0.2278163296288093
  0.1720883124213732  0.8365610786255567  0.0584900032464001
  0.1708857306102028  0.8357584894878262  0.2299876925930128
  0.4218830862152380  0.8366249252524155  0.0581361595260702
  0.4226098554605074  0.8352306309001049  0.2294885130361015
  0.6724176375517299  0.8399494991573322  0.0535005342551369
  0.6746672028259995  0.8311763583922582  0.2280560687162310
  0.9240816361888111  0.8372369139614237  0.0550153631702931
  0.9163236731857460  0.8337895910056802  0.2290225854916883
  0.6770778519730867  0.6226043783181529  0.2533525482569237
  0.5812576234411138  0.5179383499698148  0.3969602600908511
  0.6771747749066657  0.5660188822917148  0.3518978418035421
  0.5895742533738341  0.5026348327138180  0.4556675433041828
  0.7656611076888696  0.5831241756469403  0.3719425410931297
  0.4903367732186935  0.4932067627504973  0.3781129543406209
  0.6312122685799707  0.4846696012178663  0.2518860197633657
 
 -0.30737239E-02 -0.19684168E-02  0.77922843E-03
 -0.42238149E-02 -0.12268166E-01 -0.68950311E-02
  0.10020667E-01 -0.90469786E-02 -0.52143970E-02
  0.25293366E-02 -0.24598746E-02 -0.15740201E-02
  0.13677749E-02  0.12240637E-02  0.23842163E-02
 -0.21212662E-02 -0.33124984E-02  0.75782547E-02
  0.28458845E-01 -0.35843584E-01  0.24280251E-01
  0.66777466E-02 -0.50916456E-02  0.34101857E-02
  0.45640911E-03 -0.17522071E-02  0.36138173E-02
  0.27853380E-02 -0.14458489E-03  0.51261374E-03
  0.20338758E-01  0.14699727E-01  0.82643281E-02
 -0.23797130E-01 -0.27995075E-02  0.21246195E-01
 -0.40653849E-02 -0.72304668E-02  0.42599354E-02
 -0.18917707E-03 -0.12644518E-02 -0.24789960E-02
  0.27327240E-02 -0.21101530E-02 -0.24312230E-02
 -0.37083675E-02 -0.33736710E-02  0.10987100E-02
 -0.77021034E-02 -0.71272711E-02 -0.73925443E-03
 -0.26277401E-02 -0.61162237E-02 -0.88308741E-03
  0.11510557E-02 -0.63054971E-02 -0.77517491E-02
  0.14162700E-02 -0.20082730E-02 -0.30797959E-02
  0.78634309E-02 -0.44609276E-02 -0.53430230E-02
  0.36228341E-02 -0.64791242E-02 -0.20637791E-02
  0.55281683E-03 -0.15092383E-02 -0.77420166E-03
 -0.11224176E-02 -0.10510908E-02  0.18082699E-02
  0.90252754E-04  0.24242973E-02  0.40809819E-02
 -0.24014583E-02 -0.13989078E-02  0.44661289E-02
 -0.21430270E-01 -0.44249864E-02  0.26045098E-02
 -0.11229397E-01 -0.46366551E-01 -0.10164413E-01
  0.22106354E-01 -0.63623886E-02 -0.32578703E-02
  0.37737728E-01 -0.43777956E-01  0.53148435E-02
  0.49520886E-02  0.16181676E-02  0.53922076E-03
  0.47845719E-02 -0.27692024E-02  0.28934795E-02
  0.98763218E-03  0.10841209E-03  0.12889962E-02
  0.32747841E-02  0.28003947E-02  0.18432294E-02
  0.11928917E-01 -0.21628910E-02  0.10431698E-01
  0.13004047E-01  0.78374457E-02 -0.73797347E-02
  0.12573330E-02 -0.18476344E-01  0.19303537E-01
 -0.14754166E-01  0.68742697E-02  0.11359420E-01
 -0.44769073E-03 -0.70450296E-03  0.31553056E-02
 -0.49354023E-02 -0.40955052E-02  0.20889730E-02
  0.20328813E-02 -0.12197143E-02  0.14521255E-02
  0.30285800E-03 -0.27597442E-02 -0.12388602E-02
  0.62533670E-03  0.36812166E-03 -0.13360350E-02
 -0.12466896E-02 -0.80937538E-02 -0.71451207E-03
  0.21930129E-02  0.39846311E-03  0.48986206E-02
 -0.53634329E-03 -0.16561482E-01  0.75238944E-02
 -0.93527593E-02  0.21529336E-02  0.72908696E-02
  0.47900571E-01 -0.17380410E-01  0.12645425E+00
  0.12443075E-02  0.57429416E-01  0.85842949E-01
 -0.25431062E-01  0.24952168E+00  0.17944309E+00
  0.11256165E-01 -0.13514578E+00  0.52762487E-01
 -0.87693992E-02  0.13966203E+00  0.19121935E+00
  0.15234930E-02  0.92414851E-01  0.47720856E-01
 -0.10426469E+00 -0.15361752E+00 -0.85916871E+00
