POSCARxPz1                              
   1.00000000000000     
    12.7690000533999992    0.0000000000000000    0.0000000000000000
    -6.3845000266999996   11.0582784271999994    0.0000000000000000
     0.0000000000000000    0.0000000000000000   18.1282997130999988
   Mo   S    Cu   C    H 
    16    31     1     2     6
Direct
  0.0818099654377808  0.1592760805693251  0.1414901892548430
  0.3324928377590621  0.1602723598285637  0.1424763869424516
  0.5815129948145479  0.1594863389339015  0.1416253564660659
  0.8311766192694714  0.1588414437298648  0.1411103536466772
  0.0818253617682033  0.4094828503836557  0.1411321479826458
  0.3341628572214396  0.4105115605409690  0.1407484921447759
  0.5826474421377570  0.4122653715929017  0.1391566807204969
  0.8301832900036830  0.4093357136529302  0.1395001510154280
  0.0809187529555035  0.6588752139468963  0.1409358068532661
  0.3324330563720310  0.6589960417047335  0.1419442083705901
  0.5816170843260915  0.6568613470832451  0.1381319887311086
  0.8336684170694401  0.6599004190243933  0.1331908474365743
  0.0805979825646365  0.9086815876215113  0.1415673622968212
  0.3314847230112994  0.9092191826284840  0.1423980628411574
  0.5815377618403861  0.9085573444462515  0.1415783990596276
  0.8303253236860959  0.9073343106787020  0.1397931653663040
  0.1659856830747005  0.0762349247722476  0.0562959613146712
  0.1641831618711090  0.0757626339761785  0.2277723470167264
  0.4143768550065887  0.0757643392358972  0.0564806083344321
  0.4155777539952014  0.0765762693602402  0.2282020563452398
  0.6640632754491373  0.0753384399311854  0.0556421368953222
  0.6653386318513727  0.0758565569154516  0.2274366319133867
  0.9151584585474536  0.0762426363029323  0.0551622290361233
  0.9138152289531670  0.0741115507932784  0.2264280982492246
  0.1656611578354509  0.3260919026012718  0.0555151169120943
  0.1664674351119100  0.3269093918441521  0.2267713151921688
  0.4161068283029623  0.3251513007575388  0.0548365896421885
  0.4201350712763220  0.3312415095366148  0.2270005894771019
  0.6630141144336954  0.3249498845391283  0.0541776122067103
  0.6648622313683692  0.3295962111457257  0.2260506172145662
  0.9149304483164683  0.3251438280428281  0.0548853333494088
  0.9140191326648682  0.3264459910010787  0.2261794123086443
  0.1660725274938326  0.5766381066788077  0.0556502210151578
  0.1644027338661396  0.5755840210735164  0.2272385492887284
  0.4152641227211156  0.5770238940395037  0.0541739112395355
  0.4200695026563878  0.5758647287647538  0.2266922148186072
  0.6641413275648677  0.5752185868718133  0.0507061285412822
  0.9178267199144264  0.5745514957316403  0.0515758528445308
  0.9084284871212988  0.5747813633375246  0.2249483887561962
  0.1654301934958106  0.8265128226426972  0.0560217966396950
  0.1637424405526941  0.8251137295686464  0.2275883092186024
  0.4145592567011336  0.8258714671907903  0.0563007554381596
  0.4153985642308319  0.8254958187681473  0.2279603626534781
  0.6635031090918589  0.8252782935411654  0.0539591983236909
  0.6645778497220850  0.8209257439120129  0.2257370558096942
  0.9178634024799169  0.8300487968912981  0.0520765781754351
  0.9074451055590558  0.8187149573699281  0.2253560983059569
  0.7499005131592014  0.6086403713268439  0.2732423857984821
  0.6876204713824992  0.5628344601636647  0.3730335545278932
  0.6570114844414960  0.6522596145017041  0.4090919058358554
  0.6069838562705518  0.4719593870670181  0.3682155636654987
  0.7558168111948302  0.5533589837326239  0.4051286972683270
  0.7372734830319477  0.7427823321005887  0.4145429094387783
  0.6194180703968740  0.6227632478688857  0.4651212739717858
  0.5893377274459985  0.6625437736704565  0.3771235656534834
  0.6823817312089697  0.5876937160638720  0.1897538582343155
 
  0.00000000E+00  0.00000000E+00  0.00000000E+00
  0.00000000E+00  0.00000000E+00  0.00000000E+00
  0.00000000E+00  0.00000000E+00  0.00000000E+00
  0.00000000E+00  0.00000000E+00  0.00000000E+00
  0.00000000E+00  0.00000000E+00  0.00000000E+00
  0.00000000E+00  0.00000000E+00  0.00000000E+00
  0.00000000E+00  0.00000000E+00  0.00000000E+00
  0.00000000E+00  0.00000000E+00  0.00000000E+00
  0.00000000E+00  0.00000000E+00  0.00000000E+00
  0.00000000E+00  0.00000000E+00  0.00000000E+00
  0.00000000E+00  0.00000000E+00  0.00000000E+00
  0.00000000E+00  0.00000000E+00  0.00000000E+00
  0.00000000E+00  0.00000000E+00  0.00000000E+00
  0.00000000E+00  0.00000000E+00  0.00000000E+00
  0.00000000E+00  0.00000000E+00  0.00000000E+00
  0.00000000E+00  0.00000000E+00  0.00000000E+00
  0.00000000E+00  0.00000000E+00  0.00000000E+00
  0.00000000E+00  0.00000000E+00  0.00000000E+00
  0.00000000E+00  0.00000000E+00  0.00000000E+00
  0.00000000E+00  0.00000000E+00  0.00000000E+00
  0.00000000E+00  0.00000000E+00  0.00000000E+00
  0.00000000E+00  0.00000000E+00  0.00000000E+00
  0.00000000E+00  0.00000000E+00  0.00000000E+00
  0.00000000E+00  0.00000000E+00  0.00000000E+00
  0.00000000E+00  0.00000000E+00  0.00000000E+00
  0.00000000E+00  0.00000000E+00  0.00000000E+00
  0.00000000E+00  0.00000000E+00  0.00000000E+00
  0.00000000E+00  0.00000000E+00  0.00000000E+00
  0.00000000E+00  0.00000000E+00  0.00000000E+00
  0.00000000E+00  0.00000000E+00  0.00000000E+00
  0.00000000E+00  0.00000000E+00  0.00000000E+00
  0.00000000E+00  0.00000000E+00  0.00000000E+00
  0.00000000E+00  0.00000000E+00  0.00000000E+00
  0.00000000E+00  0.00000000E+00  0.00000000E+00
  0.00000000E+00  0.00000000E+00  0.00000000E+00
  0.00000000E+00  0.00000000E+00  0.00000000E+00
  0.00000000E+00  0.00000000E+00  0.00000000E+00
  0.00000000E+00  0.00000000E+00  0.00000000E+00
  0.00000000E+00  0.00000000E+00  0.00000000E+00
  0.00000000E+00  0.00000000E+00  0.00000000E+00
  0.00000000E+00  0.00000000E+00  0.00000000E+00
  0.00000000E+00  0.00000000E+00  0.00000000E+00
  0.00000000E+00  0.00000000E+00  0.00000000E+00
  0.00000000E+00  0.00000000E+00  0.00000000E+00
  0.00000000E+00  0.00000000E+00  0.00000000E+00
  0.00000000E+00  0.00000000E+00  0.00000000E+00
  0.00000000E+00  0.00000000E+00  0.00000000E+00
  0.00000000E+00  0.00000000E+00  0.00000000E+00
  0.00000000E+00  0.00000000E+00  0.00000000E+00
  0.00000000E+00  0.00000000E+00  0.00000000E+00
  0.00000000E+00  0.00000000E+00  0.00000000E+00
  0.00000000E+00  0.00000000E+00  0.00000000E+00
  0.00000000E+00  0.00000000E+00  0.00000000E+00
  0.00000000E+00  0.00000000E+00  0.00000000E+00
  0.00000000E+00  0.00000000E+00  0.00000000E+00
  0.00000000E+00  0.00000000E+00  0.00000000E+00
