POSCARPt                                
   1.00000000000000     
    12.7690000533999992    0.0000000000000000    0.0000000000000000
    -6.3845000266999996   11.0582784271999994    0.0000000000000000
     0.0000000000000000    0.0000000000000000   18.1282997130999988
   Mo   S    Cu   C    H 
    16    31     1     2     6
Direct
  0.0856493598468405  0.1655032709376895  0.1414977476957797
  0.3359649589937640  0.1663089672839285  0.1415203375553969
  0.5865436329737539  0.1665716419041766  0.1419384913257123
  0.8356666960061976  0.1654688254089371  0.1416551824216539
  0.0856909823286731  0.4155329390689561  0.1399744228081438
  0.3360124774729805  0.4159950836398809  0.1403342515481487
  0.5835129928539969  0.4141355396386114  0.1401475464839655
  0.8359925744925756  0.4160313318435085  0.1419843763373118
  0.0882924420751320  0.6669053121986787  0.1398231675377243
  0.3353087235031696  0.6663036317787678  0.1386079605440269
  0.5841828710328606  0.6658528273687532  0.1425415657975679
  0.8362835495073744  0.6666227770882746  0.1465540445450384
  0.0861446288557658  0.9158348450435797  0.1426394184226200
  0.3366896719558835  0.9167563568298907  0.1409378266966330
  0.5864237306734481  0.9158781145903160  0.1417260371681986
  0.8354423349669162  0.9143767500633334  0.1432679395133391
  0.1686124112729639  0.0815992152995550  0.0560109247892372
  0.1700467393447124  0.0837111456296500  0.2277735545597163
  0.4203477070744058  0.0839506114578468  0.0556926463208348
  0.4194518917508858  0.0827817298360597  0.2273388606167385
  0.6691568748929725  0.0825220531000756  0.0559080664992681
  0.6695166991535607  0.0825613604855181  0.2277932822941294
  0.9180619179059384  0.0803401500429701  0.0563898468894940
  0.9195674497677436  0.0831205076086265  0.2278490897576774
  0.1687324890301063  0.3312515918970532  0.0546329504793714
  0.1694346006974754  0.3332224908002476  0.2263382903232908
  0.4192271379409362  0.3318495744247649  0.0545247410763177
  0.4202822614781863  0.3350169162407490  0.2270931621632088
  0.6692366244018797  0.3329211002868184  0.0555714199390578
  0.6689883505095803  0.3353731350983826  0.2275369317859797
  0.9176727891778439  0.3318377149937801  0.0552623901822045
  0.9201978307268780  0.3324418194127516  0.2269920687800099
  0.1683704492704048  0.5818555414943517  0.0530155102539032
  0.1707700553209544  0.5825990394121151  0.2253561279298884
  0.4205674661585148  0.5828142432550154  0.0540088174853099
  0.4149351492550285  0.5825668399224059  0.2249991064093533
  0.6708841163183401  0.5837894284854803  0.0603915808073370
  0.9171534838556172  0.5837350030326289  0.0570707998729773
  0.9285541528352368  0.5817348843728358  0.2276095723156007
  0.1696285854219304  0.8345325627609353  0.0550563277601074
  0.1709878899675192  0.8323868751633421  0.2270589553481183
  0.4211398070251380  0.8348714678381375  0.0545219419009972
  0.4185250790619551  0.8314959021083597  0.2262537395477144
  0.6693791496484489  0.8312807667967760  0.0563932813020378
  0.6686815625249733  0.8303906444262406  0.2286979029470753
  0.9173431820552739  0.8288860909500231  0.0583901799452445
  0.9205312792161291  0.8348313559599098  0.2302200368339223
  0.6541841547423672  0.5849241318260621  0.2548007464605975
  0.5655169991519643  0.5767811813553503  0.3535343939877312
  0.6688815364298895  0.5711293637002286  0.3748902001706111
  0.5652666008370185  0.6619269445315911  0.3575511160806845
  0.4776403122589872  0.4942382986515898  0.3513332480149205
  0.6582294607991881  0.4839782978882712  0.3916328229940265
  0.7449227421849334  0.6509597188079952  0.3999692745054939
  0.7503196559261485  0.5806553431145761  0.3107981490108365
  0.7871270117912428  0.6007584023447294  0.2556629712484675
 
  0.63381768E-03 -0.19088310E-02  0.68030754E-03
  0.50146658E-03  0.79637464E-03  0.10737770E-02
 -0.69473033E-03  0.14666893E-02 -0.98484868E-03
 -0.33267135E-04 -0.18916042E-03 -0.54673756E-03
  0.68450078E-03  0.91618568E-03 -0.44591049E-03
  0.58768790E-02 -0.54337199E-02 -0.51707518E-02
 -0.68592671E-02  0.10456664E-01 -0.33724898E-02
 -0.23190122E-02  0.29877485E-02 -0.55568032E-02
  0.16030593E-01  0.57443912E-02 -0.17172736E-01
  0.73292990E-02 -0.72894142E-03  0.23433380E-02
  0.19197002E-01  0.15013426E-01 -0.36083447E-01
 -0.33761235E-01  0.51800740E-01 -0.95892332E-01
 -0.39068397E-03 -0.26937647E-02  0.45574151E-03
  0.13303986E-03  0.15503876E-02 -0.76064650E-03
  0.24003613E-02 -0.12816277E-03  0.86707613E-03
  0.73366049E-02 -0.58532861E-02 -0.11646648E-01
  0.20263302E-02 -0.20917216E-03  0.36772841E-03
 -0.81840797E-03 -0.29416195E-02  0.88858586E-03
  0.30730416E-04  0.82756692E-03  0.39036964E-04
  0.56976561E-04  0.41833124E-03  0.12282804E-03
 -0.79043967E-03  0.55033472E-03  0.15455149E-03
  0.44918635E-03  0.25215663E-03  0.14419310E-03
  0.11081729E-03  0.27471025E-02 -0.20491145E-02
  0.11299706E-02 -0.62767972E-02 -0.29402112E-02
 -0.44589235E-03 -0.15882252E-02  0.26786465E-03
  0.77268100E-03  0.52081154E-03 -0.18867880E-02
  0.58157720E-03 -0.10763351E-03 -0.65699373E-03
  0.48199618E-02  0.71305134E-02  0.16603578E-02
 -0.26453682E-02  0.18312867E-02 -0.72394909E-04
 -0.50002805E-02  0.64886162E-02 -0.40718396E-02
 -0.63677105E-03 -0.38731691E-04 -0.40008027E-03
 -0.28552906E-02  0.40391783E-02 -0.15112113E-02
  0.10378061E-01 -0.15438311E-02 -0.48466198E-02
  0.11363280E-02  0.12253916E-02 -0.18127705E-02
 -0.20462505E-02 -0.31734249E-02 -0.82153986E-02
  0.31587963E-01  0.11971102E-02 -0.13553641E-01
 -0.81968001E-02 -0.10028455E-02 -0.36122128E-01
  0.61262002E-02  0.62317118E-02 -0.17309296E-01
  0.15940286E-02  0.32597518E-01 -0.62198782E-01
  0.36183794E-02  0.44752553E-02 -0.46748279E-02
 -0.10577638E-02 -0.39002130E-02 -0.41320986E-02
  0.71080777E-03 -0.78048137E-03  0.17258279E-02
  0.13122270E-04  0.10062467E-02  0.18860147E-03
 -0.43997524E-02  0.78177783E-02 -0.11857863E-01
  0.13652987E-01 -0.17193023E-01 -0.40154514E-02
  0.15822842E-01  0.66305959E-02 -0.27722004E-01
 -0.13095625E-01 -0.29287484E-01 -0.44968007E-02
 -0.20924313E-01 -0.20515356E-01  0.12389588E-01
 -0.76669581E-01 -0.14268639E-01  0.22957304E+00
 -0.30585580E+00 -0.18005076E-01  0.32092075E+00
 -0.45770768E-01  0.17823604E-01 -0.17241258E-01
 -0.48679894E-01 -0.15586934E-01 -0.29797703E-01
 -0.13225045E-01 -0.45536941E-02 -0.59352696E-01
 -0.87902516E-02  0.16183981E-01 -0.63480826E-01
  0.39327469E+00  0.70023353E-01 -0.51745426E+00
  0.58440804E-01 -0.12294959E+00  0.50573857E+00
