Generated by VASPKIT code               
   1.00000000000000     
    12.7690000533999992    0.0000000000000000    0.0000000000000000
    -6.3845000266999996   11.0582784271999994    0.0000000000000000
     0.0000000000000000    0.0000000000000000   18.1282997130999988
   Mo   S    Cu   C    H 
    16    31     1     2     6
Direct
  0.0881038885857053  0.1557596858870887  0.1455198544812840
  0.3383028675446826  0.1563910437556672  0.1455794375827109
  0.5881019350801726  0.1565980677167353  0.1454596050484061
  0.8376565133274417  0.1555032751101138  0.1452002872508940
  0.0882612976667114  0.4059427768269066  0.1454092800690965
  0.3398948150194944  0.4072177992272010  0.1462880715919585
  0.5933916343497864  0.4074219939843952  0.1419111152870592
  0.8369333504607663  0.4057532729819541  0.1427002703140057
  0.0864618598404807  0.6547938032000554  0.1450801590323531
  0.3375012450029076  0.6562227175685945  0.1468390460987552
  0.5888959455144885  0.6557115476706565  0.1484346655388875
  0.8395617401937121  0.6531528418946694  0.1378052656463259
  0.0865338195525635  0.9052079553888484  0.1449817103534728
  0.3373306225303870  0.9058492383166274  0.1463053258805798
  0.5872235344753063  0.9060175924922373  0.1464711713995733
  0.8361809804436340  0.9042804332996449  0.1449409226200965
  0.1716400062515951  0.0727674062985505  0.0595721042639791
  0.1706299985020469  0.0719121915697555  0.2313159441945247
  0.4207491271004091  0.0721773312744253  0.0600714006889786
  0.4213858201745094  0.0734678998816616  0.2316483213388061
  0.6703219154528171  0.0716101587988137  0.0598429299369436
  0.6716683570689089  0.0739295830209462  0.2316742803153233
  0.9210427189348184  0.0721116614420667  0.0595854329577089
  0.9208892628477547  0.0716639792287473  0.2308786611035653
  0.1730164375403966  0.3232968845149805  0.0600822218609498
  0.1716704166830388  0.3223740685226609  0.2314766216264353
  0.4221386678773534  0.3232001309362195  0.0589134952900318
  0.4278638846706598  0.3264513305296984  0.2295335171912338
  0.6696715930378838  0.3204361577475389  0.0566733538293551
  0.6738438823420193  0.3275846691413851  0.2304364189980414
  0.9223165426530147  0.3214748505623822  0.0587525543228161
  0.9202721148247964  0.3231337451715917  0.2300571710648614
  0.1724874398535951  0.5730898205567583  0.0599744828361450
  0.1690527585624571  0.5718346091445768  0.2318186033177933
  0.4235310159588681  0.5744386001972369  0.0616728678337282
  0.4193509219653336  0.5716148046843015  0.2331399153544910
  0.6689484335253508  0.5736844504338269  0.0586626975616915
  0.9244790590482953  0.5715537068589558  0.0549002060314466
  0.9129893040147750  0.5697916591463464  0.2293293992538040
  0.1712729770633603  0.8225671929348228  0.0599255769414325
  0.1690695914456934  0.8216670204762370  0.2312061325872820
  0.4207575148524924  0.8224267796096323  0.0606783639684751
  0.4206208632467439  0.8230353846717483  0.2326239155110161
  0.6684634532249055  0.8199160668713317  0.0608669469469569
  0.6726900820556116  0.8245928182500372  0.2322122418386028
  0.9218344083279475  0.8248258365402222  0.0564015337344769
  0.9145691881803878  0.8144455911055271  0.2282589596977570
  0.7045654675084480  0.5737894986297960  0.2528332614655969
  0.6479509746988386  0.5625619647977469  0.3571709547910705
  0.6472179720243956  0.6671237967979496  0.3958368761204858
  0.5625443782007435  0.4766116046287485  0.3626704744817451
  0.7234788226779818  0.5497207610392667  0.3760652105646423
  0.7316710011946594  0.7528903703274791  0.3868356459147935
  0.6362581858924234  0.6514806373293149  0.4559412357358920
  0.5721139463253679  0.6793078780373036  0.3768278261822151
  0.6050201709467491  0.6044673021870915  0.2601311672278843
 
  0.76730548E-04 -0.49745427E-02 -0.87288902E-02
  0.82787179E-03 -0.21629389E-03 -0.18845199E-02
  0.43556251E-02 -0.35557037E-02 -0.30839508E-03
  0.23708078E-02 -0.21612503E-02 -0.15507839E-02
  0.23842677E-02  0.90935083E-03  0.73636127E-03
  0.15667002E-01 -0.75862627E-03 -0.11153987E-01
 -0.29939132E-01 -0.30933482E-01 -0.26293220E-01
 -0.16985193E-04 -0.21368550E-02  0.22900771E-02
  0.67722385E-03  0.37165554E-02  0.23913191E-02
  0.10563850E-01  0.25828440E-02  0.25602290E-02
  0.36824588E-01  0.15032860E-01 -0.76682284E-01
 -0.39400556E-02  0.45774838E-01 -0.53061031E-02
 -0.15236964E-02  0.33149008E-02  0.12195988E-02
  0.68179550E-03  0.24177060E-03  0.20715891E-02
  0.12542256E-01 -0.97960327E-02 -0.35090707E-02
  0.29089795E-02 -0.25268040E-02 -0.10694808E-01
  0.29744430E-03  0.96340257E-03 -0.14286925E-02
  0.21068214E-02  0.23267541E-02 -0.12217103E-02
  0.19781390E-02 -0.31177807E-02 -0.68123687E-03
  0.28472794E-02  0.13317658E-02 -0.12135726E-02
  0.24010820E-02 -0.49611919E-02 -0.29773424E-03
  0.42925755E-02 -0.37405213E-02  0.61071300E-03
  0.34394652E-02  0.99421330E-02 -0.16765418E-01
 -0.10179763E-03 -0.27275241E-02 -0.52034962E-02
  0.74499895E-03  0.30355183E-02 -0.23314537E-02
  0.16914083E-02  0.11062723E-01  0.93697254E-02
 -0.36256202E-01 -0.27044962E-01 -0.40834638E-01
 -0.54916959E-03  0.25690336E-02 -0.73057739E-03
  0.13599146E-01 -0.68349581E-02 -0.67215282E-02
 -0.14319936E-01 -0.27937635E-02 -0.11635333E-01
  0.21318940E-02  0.10373733E-02  0.17650803E-02
  0.10754443E-02 -0.12112333E-02 -0.10170186E-02
  0.36055429E-02  0.38922709E-02  0.31100508E-02
  0.20073277E-01 -0.21973933E-01  0.11222747E-01
  0.12949340E-01  0.55459095E-02 -0.42185185E-01
  0.63875126E-01  0.11512340E-01 -0.13370525E-01
  0.21992646E-01 -0.80891906E-02 -0.31708781E-01
  0.32460793E-02 -0.22843151E-02 -0.88612661E-04
  0.60638793E-03  0.74234859E-02 -0.10803051E-01
  0.27877459E-02  0.19267129E-03  0.99195456E-03
 -0.74638166E-04  0.15139160E-02  0.69670757E-03
  0.21950159E-02 -0.37742256E-03  0.49789995E-02
  0.33461969E-02 -0.24237984E-03  0.61235545E-03
  0.35101143E-02 -0.69602603E-02 -0.29948819E-01
  0.27910129E-01 -0.54595866E-01 -0.12582724E-01
  0.81245735E-02  0.11694684E-01 -0.13005229E-01
 -0.87017834E-02  0.42454777E-01  0.13039106E-02
  0.58003653E-01  0.25393390E-01 -0.14814773E+00
 -0.14137236E+00  0.29800419E-01 -0.12892403E+00
 -0.37450815E-01  0.40321780E-01  0.27292597E-01
 -0.69944634E-01  0.47220962E-01 -0.21332120E-01
 -0.12997741E+00  0.74622120E-01 -0.27721124E+00
 -0.27442962E-01 -0.20273688E-02  0.28508552E-02
  0.23852060E-01 -0.28254433E-01 -0.98312419E-03
 -0.75152170E-01  0.70935828E-01  0.68843865E-01
  0.19436165E+00 -0.24221684E+00  0.82291575E+00
