POSCARMoS21PdDoped                      
   1.00000000000000     
    12.7690000533999992    0.0000000000000000    0.0000000000000000
    -6.3845000266999996   11.0582784271999994    0.0000000000000000
     0.0000000000000000    0.0000000000000000   18.1282997130999988
   Mo   S    Cu   C    H 
    16    31     1     2     2
Direct
  0.0805874370719956  0.1633992060286177  0.1418863005643964
  0.3302649864379032  0.1633267848501579  0.1417120384679820
  0.5802959912101742  0.1633812907101454  0.1417476680961870
  0.8300845885760348  0.1635238301724105  0.1419262514511397
  0.0804889638788810  0.4137010040310290  0.1421763880499128
  0.3325099727794562  0.4140091246544395  0.1411088849551931
  0.5795163843700820  0.4121712816104194  0.1377598843499872
  0.8288072898423759  0.4141599428195901  0.1412421884919621
  0.0793324127302104  0.6632253534002747  0.1425487041862843
  0.3312898572824347  0.6631978210242125  0.1425147645804042
  0.5843133520737797  0.6645803235569789  0.1396257290879612
  0.8278589717801902  0.6649199869662432  0.1395691551899766
  0.0794842601685451  0.9129399325278041  0.1424210761661899
  0.3301443011554428  0.9129892595908522  0.1427870246394843
  0.5807533437299732  0.9129074009606595  0.1423516493515778
  0.8297231241773628  0.9121574804004976  0.1409062696627018
  0.1633173316943762  0.0793034276934489  0.0562190362702836
  0.1636512640384393  0.0802901850263095  0.2280212171401771
  0.4131366491256301  0.0789970903857249  0.0563897876397431
  0.4138741490683176  0.0805364710533946  0.2279950078186746
  0.6632579539479921  0.0794075816244235  0.0562259779645963
  0.6638808090822863  0.0802528746381455  0.2279933202289887
  0.9138701436140906  0.0806815322904438  0.0558910289102622
  0.9132366509802574  0.0792628422490618  0.2272286636541132
  0.1640346756076217  0.3305438289075888  0.0561683355772188
  0.1652387616022671  0.3307115112663098  0.2273374604657969
  0.4123324035589636  0.3283509729634432  0.0540274672983890
  0.4179078517632238  0.3334810960108796  0.2263514233644471
  0.6634031824971853  0.3285179062835084  0.0541283050159640
  0.6626348528781799  0.3335730260910625  0.2263888546744254
  0.9137194676194865  0.3307248272782378  0.0562291420079921
  0.9128095104405589  0.3308714381634948  0.2274191638164251
  0.1640877203874666  0.5808313024498104  0.0567599578198682
  0.1635736312320023  0.5796680731318590  0.2283138177165810
  0.4150842431371635  0.5812805088802943  0.0551860034075307
  0.4195495945904578  0.5802601272419230  0.2266826206781301
  0.6635253465008126  0.5796523116152635  0.0542627898837351
  0.9136291509086749  0.5812749866734986  0.0552580141389621
  0.9081875043089381  0.5805475926243202  0.2267141875389926
  0.1634162895075074  0.8297216337275927  0.0569795823817921
  0.1628201370616358  0.8295790870643510  0.2285449352479071
  0.4135735009867048  0.8297334800261522  0.0569404609725711
  0.4141577589286229  0.8296092890324055  0.2284815229457060
  0.6627406463240344  0.8299050137743719  0.0545924700950067
  0.6652306709958439  0.8270829723741084  0.2273403015730226
  0.9146494704723458  0.8301032503755701  0.0546236967076521
  0.9091230308794505  0.8271259768025213  0.2273975060837128
  0.6631415123753998  0.5793971542871482  0.2498938304828987
  0.6303389262696617  0.5158256499938348  0.3582579246621973
  0.6895898518140745  0.6271803867628352  0.3606273935188251
  0.5792636291310927  0.4196760742489379  0.3674271447517320
  0.7401463827598268  0.7217021864521516  0.3746657164835190
 
  0.00000000E+00  0.00000000E+00  0.00000000E+00
  0.00000000E+00  0.00000000E+00  0.00000000E+00
  0.00000000E+00  0.00000000E+00  0.00000000E+00
  0.00000000E+00  0.00000000E+00  0.00000000E+00
  0.00000000E+00  0.00000000E+00  0.00000000E+00
  0.00000000E+00  0.00000000E+00  0.00000000E+00
  0.00000000E+00  0.00000000E+00  0.00000000E+00
  0.00000000E+00  0.00000000E+00  0.00000000E+00
  0.00000000E+00  0.00000000E+00  0.00000000E+00
  0.00000000E+00  0.00000000E+00  0.00000000E+00
  0.00000000E+00  0.00000000E+00  0.00000000E+00
  0.00000000E+00  0.00000000E+00  0.00000000E+00
  0.00000000E+00  0.00000000E+00  0.00000000E+00
  0.00000000E+00  0.00000000E+00  0.00000000E+00
  0.00000000E+00  0.00000000E+00  0.00000000E+00
  0.00000000E+00  0.00000000E+00  0.00000000E+00
  0.00000000E+00  0.00000000E+00  0.00000000E+00
  0.00000000E+00  0.00000000E+00  0.00000000E+00
  0.00000000E+00  0.00000000E+00  0.00000000E+00
  0.00000000E+00  0.00000000E+00  0.00000000E+00
  0.00000000E+00  0.00000000E+00  0.00000000E+00
  0.00000000E+00  0.00000000E+00  0.00000000E+00
  0.00000000E+00  0.00000000E+00  0.00000000E+00
  0.00000000E+00  0.00000000E+00  0.00000000E+00
  0.00000000E+00  0.00000000E+00  0.00000000E+00
  0.00000000E+00  0.00000000E+00  0.00000000E+00
  0.00000000E+00  0.00000000E+00  0.00000000E+00
  0.00000000E+00  0.00000000E+00  0.00000000E+00
  0.00000000E+00  0.00000000E+00  0.00000000E+00
  0.00000000E+00  0.00000000E+00  0.00000000E+00
  0.00000000E+00  0.00000000E+00  0.00000000E+00
  0.00000000E+00  0.00000000E+00  0.00000000E+00
  0.00000000E+00  0.00000000E+00  0.00000000E+00
  0.00000000E+00  0.00000000E+00  0.00000000E+00
  0.00000000E+00  0.00000000E+00  0.00000000E+00
  0.00000000E+00  0.00000000E+00  0.00000000E+00
  0.00000000E+00  0.00000000E+00  0.00000000E+00
  0.00000000E+00  0.00000000E+00  0.00000000E+00
  0.00000000E+00  0.00000000E+00  0.00000000E+00
  0.00000000E+00  0.00000000E+00  0.00000000E+00
  0.00000000E+00  0.00000000E+00  0.00000000E+00
  0.00000000E+00  0.00000000E+00  0.00000000E+00
  0.00000000E+00  0.00000000E+00  0.00000000E+00
  0.00000000E+00  0.00000000E+00  0.00000000E+00
  0.00000000E+00  0.00000000E+00  0.00000000E+00
  0.00000000E+00  0.00000000E+00  0.00000000E+00
  0.00000000E+00  0.00000000E+00  0.00000000E+00
  0.00000000E+00  0.00000000E+00  0.00000000E+00
  0.00000000E+00  0.00000000E+00  0.00000000E+00
  0.00000000E+00  0.00000000E+00  0.00000000E+00
  0.00000000E+00  0.00000000E+00  0.00000000E+00
  0.00000000E+00  0.00000000E+00  0.00000000E+00
