POSCARMoS21Pd_                          
   1.00000000000000     
    12.7690000533999992    0.0000000000000000    0.0000000000000000
    -6.3845000266999996   11.0582784271999994    0.0000000000000000
     0.0000000000000000    0.0000000000000000   18.1282997130999988
   Mo   S    Cu   C    H 
    16    31     1     2     4
Direct
  0.0826039901279816  0.1651389683971949  0.1427132344915178
  0.3335864759291632  0.1667985371858004  0.1432673628657126
  0.5829491599786201  0.1667797758100614  0.1433646525803039
  0.8322732906471316  0.1652135187974893  0.1427393451947694
  0.0825661764975260  0.4156396904101726  0.1425783404472135
  0.3341932352682954  0.4167744056887011  0.1413418031374452
  0.5845152542976561  0.4194018210201703  0.1403706146172359
  0.8320908374065775  0.4167991290814136  0.1416823928299064
  0.0821199676012739  0.6652211769825781  0.1427806187736985
  0.3324616769075200  0.6653001702033889  0.1424772891687402
  0.5802970049111554  0.6634303635231277  0.1386256400264785
  0.8321345578688203  0.6631431519600709  0.1391018838130815
  0.0821000367353101  0.9150717267099039  0.1429373305051812
  0.3326843562498770  0.9158822796493018  0.1436067780522023
  0.5825072256006962  0.9151355931305684  0.1427638927739031
  0.8312858385350872  0.9130631711457691  0.1418158251521758
  0.1666919818101548  0.0821734343276241  0.0572753715589437
  0.1658634447589578  0.0824067464959030  0.2289289027347393
  0.4162636460545582  0.0826708203453914  0.0578205151390027
  0.4164622154381548  0.0832612392482970  0.2294530802218605
  0.6653440012232489  0.0824313798432687  0.0572314486986749
  0.6663056904950291  0.0822977118586038  0.2289671243909920
  0.9155951728182051  0.0815020368406642  0.0568739377166516
  0.9149763133808748  0.0802364652809611  0.2280372645174413
  0.1655208472204934  0.3317383604692132  0.0565756058287048
  0.1672563992051051  0.3326642246132374  0.2278459926013523
  0.4171278720046554  0.3320839977003769  0.0555694070672360
  0.4206139560273656  0.3380222138018393  0.2275118147413140
  0.6648047905335146  0.3321562937224462  0.0557516767354683
  0.6667795516527533  0.3379473591668402  0.2277139079472925
  0.9157042690559730  0.3318386553402796  0.0566592698914918
  0.9151347735351988  0.3326266867430358  0.2279900391455081
  0.1656784624798949  0.5823815828596212  0.0568297696637177
  0.1656990904731622  0.5817815238304404  0.2287233446648839
  0.4144064681772511  0.5827493021224317  0.0544355515930255
  0.4190605442783424  0.5817173347035525  0.2271663591729399
  0.6661739120583428  0.5828502904620878  0.0546090836917785
  0.9175324190227022  0.5827884964669917  0.0548265336354059
  0.9118306646900113  0.5816413160555869  0.2276305853340874
  0.1664239706872944  0.8326557170977844  0.0574948717738468
  0.1650887584735268  0.8317439186480758  0.2290643736892282
  0.4157288237811599  0.8328692699567861  0.0572870908076942
  0.4161126286100320  0.8316868531946597  0.2288909625808208
  0.6651879628833441  0.8326074481693104  0.0551403229597410
  0.6646588996121890  0.8262048337392092  0.2268660376195447
  0.9167580255450707  0.8322156214923710  0.0553863822719023
  0.9108589014452454  0.8262993120044059  0.2270667440642170
  0.6650026634152624  0.5837798597575266  0.2503735949581429
  0.6087568040782405  0.5831275630291795  0.3631224513749969
  0.7156641103897493  0.5826091768685389  0.3636760379443170
  0.6064575353749311  0.6673040492746219  0.3677472787594120
  0.5218380041644798  0.4992094472198854  0.3663871429071380
  0.7176086590258056  0.4981605307799805  0.3674137823423464
  0.8023589715570080  0.6664047167732597  0.3688781648245328
 
  0.00000000E+00  0.00000000E+00  0.00000000E+00
  0.00000000E+00  0.00000000E+00  0.00000000E+00
  0.00000000E+00  0.00000000E+00  0.00000000E+00
  0.00000000E+00  0.00000000E+00  0.00000000E+00
  0.00000000E+00  0.00000000E+00  0.00000000E+00
  0.00000000E+00  0.00000000E+00  0.00000000E+00
  0.00000000E+00  0.00000000E+00  0.00000000E+00
  0.00000000E+00  0.00000000E+00  0.00000000E+00
  0.00000000E+00  0.00000000E+00  0.00000000E+00
  0.00000000E+00  0.00000000E+00  0.00000000E+00
  0.00000000E+00  0.00000000E+00  0.00000000E+00
  0.00000000E+00  0.00000000E+00  0.00000000E+00
  0.00000000E+00  0.00000000E+00  0.00000000E+00
  0.00000000E+00  0.00000000E+00  0.00000000E+00
  0.00000000E+00  0.00000000E+00  0.00000000E+00
  0.00000000E+00  0.00000000E+00  0.00000000E+00
  0.00000000E+00  0.00000000E+00  0.00000000E+00
  0.00000000E+00  0.00000000E+00  0.00000000E+00
  0.00000000E+00  0.00000000E+00  0.00000000E+00
  0.00000000E+00  0.00000000E+00  0.00000000E+00
  0.00000000E+00  0.00000000E+00  0.00000000E+00
  0.00000000E+00  0.00000000E+00  0.00000000E+00
  0.00000000E+00  0.00000000E+00  0.00000000E+00
  0.00000000E+00  0.00000000E+00  0.00000000E+00
  0.00000000E+00  0.00000000E+00  0.00000000E+00
  0.00000000E+00  0.00000000E+00  0.00000000E+00
  0.00000000E+00  0.00000000E+00  0.00000000E+00
  0.00000000E+00  0.00000000E+00  0.00000000E+00
  0.00000000E+00  0.00000000E+00  0.00000000E+00
  0.00000000E+00  0.00000000E+00  0.00000000E+00
  0.00000000E+00  0.00000000E+00  0.00000000E+00
  0.00000000E+00  0.00000000E+00  0.00000000E+00
  0.00000000E+00  0.00000000E+00  0.00000000E+00
  0.00000000E+00  0.00000000E+00  0.00000000E+00
  0.00000000E+00  0.00000000E+00  0.00000000E+00
  0.00000000E+00  0.00000000E+00  0.00000000E+00
  0.00000000E+00  0.00000000E+00  0.00000000E+00
  0.00000000E+00  0.00000000E+00  0.00000000E+00
  0.00000000E+00  0.00000000E+00  0.00000000E+00
  0.00000000E+00  0.00000000E+00  0.00000000E+00
  0.00000000E+00  0.00000000E+00  0.00000000E+00
  0.00000000E+00  0.00000000E+00  0.00000000E+00
  0.00000000E+00  0.00000000E+00  0.00000000E+00
  0.00000000E+00  0.00000000E+00  0.00000000E+00
  0.00000000E+00  0.00000000E+00  0.00000000E+00
  0.00000000E+00  0.00000000E+00  0.00000000E+00
  0.00000000E+00  0.00000000E+00  0.00000000E+00
  0.00000000E+00  0.00000000E+00  0.00000000E+00
  0.00000000E+00  0.00000000E+00  0.00000000E+00
  0.00000000E+00  0.00000000E+00  0.00000000E+00
  0.00000000E+00  0.00000000E+00  0.00000000E+00
  0.00000000E+00  0.00000000E+00  0.00000000E+00
  0.00000000E+00  0.00000000E+00  0.00000000E+00
  0.00000000E+00  0.00000000E+00  0.00000000E+00
