CONTCARfreq03_97                        
   1.00000000000000     
    12.7690000533999992    0.0000000000000000    0.0000000000000000
    -6.3845000266999996   11.0582784271999994    0.0000000000000000
     0.0000000000000000    0.0000000000000000   18.1282997130999988
   Mo   S    Cu   C    H 
    16    31     1     2     4
Direct
  0.0845419371230375  0.1657548063929919  0.1429606899785101
  0.3352023751508670  0.1669075025581628  0.1435712483319255
  0.5842203894042678  0.1662929856357311  0.1433218282496715
  0.8339314407299546  0.1656552762907834  0.1430683168485004
  0.0844316079982066  0.4161764587227413  0.1430201841382152
  0.3367108217997419  0.4170651729735096  0.1419954761355475
  0.5841993141225145  0.4187560120708885  0.1405725165072160
  0.8328175400963168  0.4163135304293567  0.1416666690180852
  0.0835787586055593  0.6655163765129085  0.1429051693676072
  0.3351085700673710  0.6655819279132410  0.1437031881900699
  0.5840689339695777  0.6628480240372663  0.1403669629246722
  0.8360491762067195  0.6666323475686198  0.1358595970705408
  0.0835897190890959  0.9154300405194381  0.1428942497629870
  0.3343038693588108  0.9157985266312549  0.1438648460141811
  0.5843052045403322  0.9151726892862012  0.1434424465412915
  0.8329998995056450  0.9139839595214971  0.1417938871377485
  0.1686203947662026  0.0827204190109299  0.0574723610941643
  0.1673784114364671  0.0824357647639434  0.2290555951071787
  0.4174898065692463  0.0823837567040957  0.0579094865413080
  0.4180319744325237  0.0831770450596259  0.2296593263401424
  0.6669025874420587  0.0820435327765484  0.0575791974309549
  0.6679802265695730  0.0826439443175287  0.2293367368962868
  0.9175430839143912  0.0827706816911457  0.0569992300417030
  0.9168801236133264  0.0809975484337358  0.2283194042174566
  0.1679480150748755  0.3327214081675748  0.0570782282433400
  0.1692355350698320  0.3333303870481177  0.2283137873131152
  0.4186406982671715  0.3318056334699138  0.0558784881342544
  0.4218548426762080  0.3373114584401946  0.2282834604297540
  0.6659059665141748  0.3319706298510228  0.0560056165027914
  0.6668234635828705  0.3365663456534832  0.2276333051314095
  0.9175096161633829  0.3321465047314779  0.0569815250182317
  0.9166070605881170  0.3332406463990711  0.2283082793165603
  0.1685921545986490  0.5832697504265889  0.0575870622486595
  0.1671816831287256  0.5822151914423124  0.2291834324146829
  0.4183951433775238  0.5842076603961638  0.0558486469260122
  0.4220271838862292  0.5818547783190470  0.2283655903404942
  0.6670619524659551  0.5821762659188637  0.0527834295661725
  0.9201621261518543  0.5815131282933524  0.0539455106556115
  0.9112445573372366  0.5816280202098462  0.2272963513334783
  0.1681415755655506  0.8326926443801819  0.0575876219969383
  0.1666553882894309  0.8320188566463708  0.2291897422901321
  0.4175890481846368  0.8323933224922203  0.0579889239941086
  0.4180444998746308  0.8321555987649506  0.2297080835898560
  0.6661432662093133  0.8315348563914386  0.0560134607870526
  0.6670650732367536  0.8273762079231716  0.2277145575882169
  0.9200406213949037  0.8360747054657518  0.0540255479480861
  0.9113239365666845  0.8266896263083215  0.2272872142428102
  0.7543908660554662  0.6212161216974413  0.2763060791659745
  0.5820388145454586  0.5346413262005236  0.3965481491720655
  0.6982587270350552  0.5888562971332594  0.3753622027159029
  0.5552666561264143  0.5193756292258654  0.4548929622273479
  0.7664413109056308  0.6170934867820986  0.4194400503604734
  0.5068903919887492  0.5025526236709997  0.3573344877332889
  0.6829437676267174  0.5908525753282367  0.1929895197272155
 
  0.00000000E+00  0.00000000E+00  0.00000000E+00
  0.00000000E+00  0.00000000E+00  0.00000000E+00
  0.00000000E+00  0.00000000E+00  0.00000000E+00
  0.00000000E+00  0.00000000E+00  0.00000000E+00
  0.00000000E+00  0.00000000E+00  0.00000000E+00
  0.00000000E+00  0.00000000E+00  0.00000000E+00
  0.00000000E+00  0.00000000E+00  0.00000000E+00
  0.00000000E+00  0.00000000E+00  0.00000000E+00
  0.00000000E+00  0.00000000E+00  0.00000000E+00
  0.00000000E+00  0.00000000E+00  0.00000000E+00
  0.00000000E+00  0.00000000E+00  0.00000000E+00
  0.00000000E+00  0.00000000E+00  0.00000000E+00
  0.00000000E+00  0.00000000E+00  0.00000000E+00
  0.00000000E+00  0.00000000E+00  0.00000000E+00
  0.00000000E+00  0.00000000E+00  0.00000000E+00
  0.00000000E+00  0.00000000E+00  0.00000000E+00
  0.00000000E+00  0.00000000E+00  0.00000000E+00
  0.00000000E+00  0.00000000E+00  0.00000000E+00
  0.00000000E+00  0.00000000E+00  0.00000000E+00
  0.00000000E+00  0.00000000E+00  0.00000000E+00
  0.00000000E+00  0.00000000E+00  0.00000000E+00
  0.00000000E+00  0.00000000E+00  0.00000000E+00
  0.00000000E+00  0.00000000E+00  0.00000000E+00
  0.00000000E+00  0.00000000E+00  0.00000000E+00
  0.00000000E+00  0.00000000E+00  0.00000000E+00
  0.00000000E+00  0.00000000E+00  0.00000000E+00
  0.00000000E+00  0.00000000E+00  0.00000000E+00
  0.00000000E+00  0.00000000E+00  0.00000000E+00
  0.00000000E+00  0.00000000E+00  0.00000000E+00
  0.00000000E+00  0.00000000E+00  0.00000000E+00
  0.00000000E+00  0.00000000E+00  0.00000000E+00
  0.00000000E+00  0.00000000E+00  0.00000000E+00
  0.00000000E+00  0.00000000E+00  0.00000000E+00
  0.00000000E+00  0.00000000E+00  0.00000000E+00
  0.00000000E+00  0.00000000E+00  0.00000000E+00
  0.00000000E+00  0.00000000E+00  0.00000000E+00
  0.00000000E+00  0.00000000E+00  0.00000000E+00
  0.00000000E+00  0.00000000E+00  0.00000000E+00
  0.00000000E+00  0.00000000E+00  0.00000000E+00
  0.00000000E+00  0.00000000E+00  0.00000000E+00
  0.00000000E+00  0.00000000E+00  0.00000000E+00
  0.00000000E+00  0.00000000E+00  0.00000000E+00
  0.00000000E+00  0.00000000E+00  0.00000000E+00
  0.00000000E+00  0.00000000E+00  0.00000000E+00
  0.00000000E+00  0.00000000E+00  0.00000000E+00
  0.00000000E+00  0.00000000E+00  0.00000000E+00
  0.00000000E+00  0.00000000E+00  0.00000000E+00
  0.00000000E+00  0.00000000E+00  0.00000000E+00
  0.00000000E+00  0.00000000E+00  0.00000000E+00
  0.00000000E+00  0.00000000E+00  0.00000000E+00
  0.00000000E+00  0.00000000E+00  0.00000000E+00
  0.00000000E+00  0.00000000E+00  0.00000000E+00
  0.00000000E+00  0.00000000E+00  0.00000000E+00
  0.00000000E+00  0.00000000E+00  0.00000000E+00
