POSCARMoS21PdDoped                      
   1.00000000000000     
    12.7690000533999992    0.0000000000000000    0.0000000000000000
    -6.3845000266999996   11.0582784271999994    0.0000000000000000
     0.0000000000000000    0.0000000000000000   18.1282997130999988
   Mo   S    Ag   C    H 
    16    31     1     2     2
Direct
  0.0814707542903054  0.1650129634983580  0.1396171344300735
  0.3310776465731667  0.1647731156331402  0.1396256307962453
  0.5812523243058970  0.1648252587740165  0.1396731636016814
  0.8310714856993142  0.1649799067315824  0.1396888252883403
  0.0813649670553802  0.4152013973231764  0.1397991514156441
  0.3330222278069263  0.4154538550473926  0.1390473411037030
  0.5802876286595623  0.4132380927241285  0.1364454222527486
  0.8300392135878354  0.4155176786474827  0.1391463151136287
  0.0806583128399261  0.6648534058219897  0.1401796448517355
  0.3317946757733400  0.6647712392316601  0.1401772606965149
  0.5835135885617782  0.6662109983807519  0.1377167360829607
  0.8305141500024140  0.6664061033620872  0.1376473508044502
  0.0806721714819844  0.9147050648339385  0.1401114213970707
  0.3311335157901340  0.9146777377072974  0.1404524504731039
  0.5815586657359703  0.9146225801633802  0.1401647863549336
  0.8306832295192699  0.9137323326446494  0.1389719966707386
  0.1643773763568446  0.0810365680245728  0.0539244404632698
  0.1643736884771666  0.0818597763547432  0.2257893911739716
  0.4142202809178570  0.0808062287047989  0.0542208342773612
  0.4147084757590576  0.0819278301294577  0.2258188198844595
  0.6641772712638684  0.0810071758734340  0.0539919363236720
  0.6649298274492744  0.0818313558066294  0.2258251188735148
  0.9146567213028206  0.0818520838843525  0.0537020241247045
  0.9143615041905093  0.0810483045342371  0.2250559102842322
  0.1649811325858453  0.3320580519044417  0.0538391879467713
  0.1657717713836989  0.3322442048606958  0.2251025312494092
  0.4137331134169051  0.3301230269745152  0.0522382467077348
  0.4177105191139293  0.3342439200033679  0.2245796872890670
  0.6640366745334696  0.3302611062004125  0.0523265451495794
  0.6640289619747622  0.3343374167238170  0.2246168928823858
  0.9144994549606099  0.3320019333712210  0.0539072741014221
  0.9140270880323531  0.3322196852149290  0.2251678254299758
  0.1649152277015397  0.5822673758754962  0.0542939021145027
  0.1643906944707373  0.5811867631357677  0.2259840159428141
  0.4155878539596465  0.5826709635492072  0.0530435784427050
  0.4188764585035959  0.5815727425138708  0.2247317665210942
  0.6644567759691835  0.5812595303874519  0.0534487407192837
  0.9147811021107493  0.5826429640632441  0.0530715732360792
  0.9104650952900243  0.5817592043159201  0.2247631876358507
  0.1644952561149032  0.8314857767283140  0.0545937923362820
  0.1640358260591471  0.8313743716242257  0.2261637519108808
  0.4145390074300234  0.8314269059776187  0.0546142626920913
  0.4147983334656780  0.8312505326806434  0.2261838737008590
  0.6636895532080223  0.8314726611362129  0.0526697313612420
  0.6659018964632588  0.8291509738756707  0.2253905023733711
  0.9153821450596689  0.8315374083411815  0.0526373088575999
  0.9109532401006274  0.8292089920916873  0.2253935188060623
  0.6652411432971012  0.5824918893208222  0.2579591709955867
  0.6197857242182714  0.4986972884818576  0.3797110653787225
  0.6784035390525949  0.6078361067005046  0.3897479961952288
  0.5674980731958220  0.4016445511373390  0.3767863978794520
  0.7286845282826557  0.7014762917410597  0.4054886116343610
 
  0.00000000E+00  0.00000000E+00  0.00000000E+00
  0.00000000E+00  0.00000000E+00  0.00000000E+00
  0.00000000E+00  0.00000000E+00  0.00000000E+00
  0.00000000E+00  0.00000000E+00  0.00000000E+00
  0.00000000E+00  0.00000000E+00  0.00000000E+00
  0.00000000E+00  0.00000000E+00  0.00000000E+00
  0.00000000E+00  0.00000000E+00  0.00000000E+00
  0.00000000E+00  0.00000000E+00  0.00000000E+00
  0.00000000E+00  0.00000000E+00  0.00000000E+00
  0.00000000E+00  0.00000000E+00  0.00000000E+00
  0.00000000E+00  0.00000000E+00  0.00000000E+00
  0.00000000E+00  0.00000000E+00  0.00000000E+00
  0.00000000E+00  0.00000000E+00  0.00000000E+00
  0.00000000E+00  0.00000000E+00  0.00000000E+00
  0.00000000E+00  0.00000000E+00  0.00000000E+00
  0.00000000E+00  0.00000000E+00  0.00000000E+00
  0.00000000E+00  0.00000000E+00  0.00000000E+00
  0.00000000E+00  0.00000000E+00  0.00000000E+00
  0.00000000E+00  0.00000000E+00  0.00000000E+00
  0.00000000E+00  0.00000000E+00  0.00000000E+00
  0.00000000E+00  0.00000000E+00  0.00000000E+00
  0.00000000E+00  0.00000000E+00  0.00000000E+00
  0.00000000E+00  0.00000000E+00  0.00000000E+00
  0.00000000E+00  0.00000000E+00  0.00000000E+00
  0.00000000E+00  0.00000000E+00  0.00000000E+00
  0.00000000E+00  0.00000000E+00  0.00000000E+00
  0.00000000E+00  0.00000000E+00  0.00000000E+00
  0.00000000E+00  0.00000000E+00  0.00000000E+00
  0.00000000E+00  0.00000000E+00  0.00000000E+00
  0.00000000E+00  0.00000000E+00  0.00000000E+00
  0.00000000E+00  0.00000000E+00  0.00000000E+00
  0.00000000E+00  0.00000000E+00  0.00000000E+00
  0.00000000E+00  0.00000000E+00  0.00000000E+00
  0.00000000E+00  0.00000000E+00  0.00000000E+00
  0.00000000E+00  0.00000000E+00  0.00000000E+00
  0.00000000E+00  0.00000000E+00  0.00000000E+00
  0.00000000E+00  0.00000000E+00  0.00000000E+00
  0.00000000E+00  0.00000000E+00  0.00000000E+00
  0.00000000E+00  0.00000000E+00  0.00000000E+00
  0.00000000E+00  0.00000000E+00  0.00000000E+00
  0.00000000E+00  0.00000000E+00  0.00000000E+00
  0.00000000E+00  0.00000000E+00  0.00000000E+00
  0.00000000E+00  0.00000000E+00  0.00000000E+00
  0.00000000E+00  0.00000000E+00  0.00000000E+00
  0.00000000E+00  0.00000000E+00  0.00000000E+00
  0.00000000E+00  0.00000000E+00  0.00000000E+00
  0.00000000E+00  0.00000000E+00  0.00000000E+00
  0.00000000E+00  0.00000000E+00  0.00000000E+00
  0.00000000E+00  0.00000000E+00  0.00000000E+00
  0.00000000E+00  0.00000000E+00  0.00000000E+00
  0.00000000E+00  0.00000000E+00  0.00000000E+00
  0.00000000E+00  0.00000000E+00  0.00000000E+00
