Generated by VASPKIT code               
   1.00000000000000     
    12.7690000533999992    0.0000000000000000    0.0000000000000000
    -6.3845000266999996   11.0582784271999994    0.0000000000000000
     0.0000000000000000    0.0000000000000000   18.1282997130999988
   Mo   S    Ag   C    H 
    16    31     1     2     4
Direct
  0.0787468348918477  0.1623319273175542  0.1030425027739450
  0.3279920590473738  0.1615510533923789  0.1026636554824289
  0.5782833537495419  0.1618672626748638  0.1030666193187394
  0.8281989384623363  0.1622957626023372  0.1031838172074420
  0.0787427652656530  0.4127441407687171  0.1037141360322271
  0.3306060921704473  0.4130091724733684  0.1037602822242622
  0.5779972965642460  0.4108199744822829  0.1041443391367594
  0.8270679456600410  0.4130167205543143  0.1032649136188509
  0.0778674858725645  0.6620287814976132  0.1036570546122628
  0.3289235126804451  0.6621436517874738  0.1042352002058766
  0.5804804457716212  0.6629302575921350  0.1039961529384148
  0.8290399680142371  0.6638595481605666  0.1015717350271762
  0.0785307766013820  0.9124201445261618  0.1023965471512493
  0.3283121324083282  0.9117894307012564  0.1032662182463003
  0.5784685521795262  0.9121495154699842  0.1031466170054730
  0.8277921402841171  0.9108420356375000  0.1030567373815897
  0.1616221276610888  0.0792602626351140  0.0166150699386874
  0.1615494973949871  0.0784863592946007  0.1887528002132517
  0.4116711397855755  0.0782811314614757  0.0171253168856423
  0.4114814545940080  0.0785212048297185  0.1889598705756242
  0.6617551962959627  0.0787312272110558  0.0171399812644245
  0.6618758232979937  0.0788574523799006  0.1891370735011579
  0.9115616042003823  0.0788915647918381  0.0173432849595012
  0.9117823962232270  0.0785941676229596  0.1887694750047318
  0.1630275856590545  0.3300496771361878  0.0179016551992392
  0.1624992627158541  0.3290440474720831  0.1891731391900832
  0.4134270274754437  0.3294096475914564  0.0173043115551309
  0.4114272364482997  0.3276131527606746  0.1889435166524522
  0.6602927180189764  0.3291700369101408  0.0172387357511997
  0.6616591192318242  0.3288564814887894  0.1893341478313244
  0.9117180894548063  0.3297210632052487  0.0178119322959214
  0.9112422278893035  0.3292986668015280  0.1890128310590134
  0.1623711069485486  0.5792898289094978  0.0180447405636597
  0.1614578817092608  0.5788617176570244  0.1898696769382044
  0.4144422958979878  0.5806394864734583  0.0182566112471079
  0.4149674542828485  0.5790267513753485  0.1898011524446941
  0.6609735472392172  0.5777949095922472  0.0198447968776613
  0.9116852096206177  0.5798313044066710  0.0167906964919707
  0.9081474223682320  0.5793858377479187  0.1888810072163456
  0.1616341947636140  0.8280476843709458  0.0173146542666293
  0.1615345898887272  0.8291543756100866  0.1890589118197714
  0.4114771364087353  0.8278760323735975  0.0177479802452581
  0.4121327374754371  0.8292749904316928  0.1896121080555032
  0.6603832408355379  0.8267494093630195  0.0172921098487799
  0.6631198806946956  0.8295620767977985  0.1895678703713710
  0.9116926443881467  0.8285544070494703  0.0159720730797342
  0.9113160048786729  0.8288342128992873  0.1884328417673139
  0.6652517313111243  0.5780746180069525  0.2213596653991467
  0.6018925116365977  0.4839289064896594  0.3293279255605468
  0.6586406181790884  0.5755897144818406  0.3732078455545714
  0.5474889850442479  0.3865355514606935  0.3380365978817012
  0.6816537043378794  0.5917890437147313  0.4320123430821905
  0.7076222699972021  0.6753659705796755  0.3379988720878010
  0.7382142965204512  0.7290214023821339  0.2876684153130235
 
 -0.41752267E-02  0.25889069E-02  0.13292149E-02
  0.23156732E-02  0.13167772E-02  0.66799216E-02
 -0.24162222E-02  0.24401064E-02  0.70339976E-02
  0.13244418E-02  0.19127852E-02  0.43556557E-03
 -0.34398743E-03  0.16196515E-02 -0.87782357E-03
 -0.53099874E-02  0.88263596E-02 -0.22322541E-02
  0.19285711E-01  0.20575179E-01 -0.11585298E-01
  0.83217125E-03  0.77082970E-02 -0.47704226E-02
  0.34783939E-02 -0.48069500E-02 -0.28369515E-02
 -0.25297405E-02 -0.35349949E-02 -0.49204344E-02
 -0.75264300E-01 -0.26641618E-01 -0.21430690E-01
  0.71197451E-01 -0.44823867E-01 -0.27092399E-01
 -0.26461520E-02 -0.63609066E-02  0.84719406E-02
 -0.56302596E-03  0.12507372E-02  0.89261102E-03
  0.26464096E-02 -0.20085106E-02  0.17625328E-02
 -0.20404660E-02  0.12321526E-01 -0.40734861E-02
  0.17419501E-02 -0.36571985E-02  0.24340614E-02
 -0.19616599E-02  0.39823298E-03 -0.75398111E-03
 -0.23342547E-03  0.15474900E-02  0.11157920E-02
 -0.15817052E-03 -0.19960322E-02  0.10845551E-02
 -0.17262061E-02 -0.27150544E-02  0.17423511E-02
  0.10128572E-02  0.37397060E-04 -0.93803052E-04
 -0.27701759E-03 -0.26848565E-02  0.11423422E-02
  0.40991901E-03  0.68749561E-03 -0.50529803E-03
 -0.10622562E-03  0.28318349E-03 -0.38430761E-03
  0.24772792E-03 -0.67293393E-03 -0.73880718E-03
  0.38444117E-02  0.29183281E-03 -0.38948527E-02
  0.14478588E-02  0.41412014E-02 -0.11724352E-01
 -0.72298509E-02 -0.13103635E-02 -0.64018149E-02
  0.59288197E-02  0.34950938E-02 -0.95712474E-03
  0.40818387E-03  0.66595898E-04 -0.98173361E-03
 -0.16415314E-02 -0.61096371E-03 -0.14372950E-02
  0.40539287E-03 -0.11644302E-02 -0.15286660E-02
  0.25522114E-03  0.11349425E-03  0.78772146E-03
 -0.11712481E-01 -0.45188287E-02 -0.97408519E-02
 -0.11468984E-01 -0.67808410E-02  0.17433063E-01
  0.55309326E-03  0.21253056E-01 -0.39147160E-02
  0.10885718E-01 -0.82709482E-04 -0.11940300E-01
  0.11907138E-01 -0.10931403E-01  0.16720208E-01
 -0.14463556E-02  0.15218751E-02  0.75209730E-03
  0.17433103E-02 -0.79320237E-03 -0.18030743E-02
  0.11579217E-03  0.14189626E-02  0.40516143E-03
 -0.42082831E-03 -0.41565399E-03 -0.30844656E-02
  0.73164252E-02  0.15718921E-01  0.63883777E-04
 -0.14676292E-01 -0.16930145E-01 -0.13200109E-01
 -0.68321948E-02  0.12447309E-01  0.42982466E-03
  0.30178794E-02 -0.19199824E-01 -0.14193208E-01
  0.25690672E-01 -0.88953408E-01 -0.61984294E-01
 -0.82816709E-02 -0.11036451E+00  0.17426333E+00
  0.14835141E-02 -0.31738624E+00  0.98556030E-01
 -0.36167195E-01 -0.97057192E-01 -0.10362796E+00
  0.25173443E-01  0.20593656E+00 -0.41169885E-01
  0.20611520E-01  0.39979696E+00 -0.52597472E+00
 -0.25662857E-01  0.49633546E-01  0.55477966E+00
