POSCARxPz1                              
   1.00000000000000     
    12.7690000533999992    0.0000000000000000    0.0000000000000000
    -6.3845000266999996   11.0582784271999994    0.0000000000000000
     0.0000000000000000    0.0000000000000000   18.1282997130999988
   Mo   S    Ag   C    H 
    16    31     1     2     6
Direct
  0.0965095084093122  0.1567881902213549  0.1413172683411237
  0.3464603320183903  0.1570537876626940  0.1412912473422615
  0.5964390123893272  0.1566646630039852  0.1409853167833330
  0.8462290046420909  0.1566191989895035  0.1407795224980637
  0.0967142754910898  0.4070583898954581  0.1406932694690986
  0.3482667212693508  0.4080092060581209  0.1410217483394344
  0.5988727012812475  0.4045297436252467  0.1392325067634969
  0.8456240331355660  0.4061787222405295  0.1398344673817595
  0.0956479682088090  0.6564882601335501  0.1409310279345931
  0.3455688019015696  0.6571949960501710  0.1404814036785492
  0.5964557818636231  0.6601242740586046  0.1413566407287940
  0.8461369654068802  0.6561865741406898  0.1396564685606210
  0.0950397465448805  0.9061730953463875  0.1417374673422998
  0.3458644665579694  0.9068478362469885  0.1413011370880759
  0.5961467406360613  0.9072770723432272  0.1409686579947217
  0.8446901545161899  0.9052236333950202  0.1409926215814762
  0.1793692839767388  0.0730016814607436  0.0557314242369428
  0.1795370499105320  0.0735849868793749  0.2274285337573808
  0.4290651459564619  0.0733214517874585  0.0553547799226395
  0.4296717550078789  0.0735114040964325  0.2270996614907508
  0.6794128732963209  0.0733553441394332  0.0549195517019766
  0.6800157485101638  0.0736794603345268  0.2269134181957058
  0.9297065648543028  0.0729165325357310  0.0553317451214812
  0.9292664274710497  0.0729350144034025  0.2266934034110470
  0.1807556373651235  0.3236343307938538  0.0553058558151674
  0.1807892950334468  0.3242979423272284  0.2266824914240112
  0.4300257376714250  0.3231156009348490  0.0546898837066623
  0.4337552972537850  0.3262239080192623  0.2262724933024479
  0.6792992840437976  0.3217964472939003  0.0535584384955878
  0.6807849151424361  0.3235776770792786  0.2270585670221702
  0.9302248507881928  0.3230822184424522  0.0545797709186576
  0.9296801585595278  0.3237950918870596  0.2261633676055901
  0.1791466919604284  0.5737129826191736  0.0546356226160636
  0.1793457374262274  0.5733093582796884  0.2267503517073625
  0.4304897190582453  0.5747480428305430  0.0549344644527742
  0.4298040628222328  0.5745080960046408  0.2260019419118209
  0.6779507507241082  0.5740479450256597  0.0566267669661754
  0.9296341093822884  0.5736506866857498  0.0539761501737933
  0.9280053763966443  0.5724475812524581  0.2263338268547629
  0.1788634931686788  0.8237544564665271  0.0555906409116750
  0.1790870989172023  0.8229407725788241  0.2272118868591378
  0.4292945977356000  0.8241153238550453  0.0550755463361215
  0.4293551089794760  0.8234188687263169  0.2269520008047639
  0.6781468970036227  0.8230340300066084  0.0547664654832890
  0.6797823562270843  0.8240990990998875  0.2276222990072184
  0.9296329062347913  0.8232982699011403  0.0545666682597850
  0.9250384429032998  0.8199103927941560  0.2271489330770108
  0.6792102797609719  0.5911348038883725  0.2770878992327117
  0.5931945764376150  0.5804014696610240  0.3803383539215674
  0.5671065513894691  0.6800102315754907  0.3995155656282839
  0.5112777107105444  0.4906802579237052  0.3780134335922386
  0.6597268787311669  0.5772930089268037  0.4178090580460206
  0.6497950710431393  0.7687216567734352  0.4041263519755711
  0.5188717250263299  0.6615283293117219  0.4528908882864979
  0.5077401272089207  0.6882116398788667  0.3585459932042004
  0.7140329216384013  0.5385502101076183  0.1939701227352361
 
  0.00000000E+00  0.00000000E+00  0.00000000E+00
  0.00000000E+00  0.00000000E+00  0.00000000E+00
  0.00000000E+00  0.00000000E+00  0.00000000E+00
  0.00000000E+00  0.00000000E+00  0.00000000E+00
  0.00000000E+00  0.00000000E+00  0.00000000E+00
  0.00000000E+00  0.00000000E+00  0.00000000E+00
  0.00000000E+00  0.00000000E+00  0.00000000E+00
  0.00000000E+00  0.00000000E+00  0.00000000E+00
  0.00000000E+00  0.00000000E+00  0.00000000E+00
  0.00000000E+00  0.00000000E+00  0.00000000E+00
  0.00000000E+00  0.00000000E+00  0.00000000E+00
  0.00000000E+00  0.00000000E+00  0.00000000E+00
  0.00000000E+00  0.00000000E+00  0.00000000E+00
  0.00000000E+00  0.00000000E+00  0.00000000E+00
  0.00000000E+00  0.00000000E+00  0.00000000E+00
  0.00000000E+00  0.00000000E+00  0.00000000E+00
  0.00000000E+00  0.00000000E+00  0.00000000E+00
  0.00000000E+00  0.00000000E+00  0.00000000E+00
  0.00000000E+00  0.00000000E+00  0.00000000E+00
  0.00000000E+00  0.00000000E+00  0.00000000E+00
  0.00000000E+00  0.00000000E+00  0.00000000E+00
  0.00000000E+00  0.00000000E+00  0.00000000E+00
  0.00000000E+00  0.00000000E+00  0.00000000E+00
  0.00000000E+00  0.00000000E+00  0.00000000E+00
  0.00000000E+00  0.00000000E+00  0.00000000E+00
  0.00000000E+00  0.00000000E+00  0.00000000E+00
  0.00000000E+00  0.00000000E+00  0.00000000E+00
  0.00000000E+00  0.00000000E+00  0.00000000E+00
  0.00000000E+00  0.00000000E+00  0.00000000E+00
  0.00000000E+00  0.00000000E+00  0.00000000E+00
  0.00000000E+00  0.00000000E+00  0.00000000E+00
  0.00000000E+00  0.00000000E+00  0.00000000E+00
  0.00000000E+00  0.00000000E+00  0.00000000E+00
  0.00000000E+00  0.00000000E+00  0.00000000E+00
  0.00000000E+00  0.00000000E+00  0.00000000E+00
  0.00000000E+00  0.00000000E+00  0.00000000E+00
  0.00000000E+00  0.00000000E+00  0.00000000E+00
  0.00000000E+00  0.00000000E+00  0.00000000E+00
  0.00000000E+00  0.00000000E+00  0.00000000E+00
  0.00000000E+00  0.00000000E+00  0.00000000E+00
  0.00000000E+00  0.00000000E+00  0.00000000E+00
  0.00000000E+00  0.00000000E+00  0.00000000E+00
  0.00000000E+00  0.00000000E+00  0.00000000E+00
  0.00000000E+00  0.00000000E+00  0.00000000E+00
  0.00000000E+00  0.00000000E+00  0.00000000E+00
  0.00000000E+00  0.00000000E+00  0.00000000E+00
  0.00000000E+00  0.00000000E+00  0.00000000E+00
  0.00000000E+00  0.00000000E+00  0.00000000E+00
  0.00000000E+00  0.00000000E+00  0.00000000E+00
  0.00000000E+00  0.00000000E+00  0.00000000E+00
  0.00000000E+00  0.00000000E+00  0.00000000E+00
  0.00000000E+00  0.00000000E+00  0.00000000E+00
  0.00000000E+00  0.00000000E+00  0.00000000E+00
  0.00000000E+00  0.00000000E+00  0.00000000E+00
  0.00000000E+00  0.00000000E+00  0.00000000E+00
  0.00000000E+00  0.00000000E+00  0.00000000E+00
