POSCAR1Pd_                              
   1.00000000000000     
    12.7690000533999992    0.0000000000000000    0.0000000000000000
    -6.3845000266999996   11.0582784271999994    0.0000000000000000
     0.0000000000000000    0.0000000000000000   18.1282997130999988
   Mo   S    Ag   C    H 
    16    31     1     2     4
Direct
  0.0928191222637773  0.1770302299845275  0.1417212609883754
  0.3420847496206970  0.1762348260331860  0.1418659884929864
  0.5922042233329607  0.1760883881266674  0.1419210730764611
  0.8423331461462912  0.1770619711307080  0.1419465571819281
  0.0925227547308692  0.4271760678695833  0.1422521307905003
  0.3440774420411875  0.4270034520249099  0.1416571028021397
  0.5893932921433284  0.4240406069020548  0.1422597488083977
  0.8408529829293478  0.4275886248660888  0.1423768498556989
  0.0921070737152338  0.6767333739839347  0.1421774325536584
  0.3430991718556948  0.6764466717013456  0.1424799232250518
  0.5929835324814288  0.6772623989925666  0.1406348446263312
  0.8450000626991288  0.6811909901200369  0.1396937001557156
  0.0927420271438363  0.9271783424911739  0.1417810618128090
  0.3424459581948564  0.9264088121275733  0.1422205145957652
  0.5928229727072475  0.9266347144539012  0.1420584739339101
  0.8430643194879966  0.9266420742798185  0.1408553082587990
  0.1761685657688895  0.0935818486560725  0.0557377022523831
  0.1756440378313749  0.0936139597905806  0.2278199229479463
  0.4257203473077404  0.0928383416580651  0.0561532650072749
  0.4255361188519804  0.0930380026826903  0.2280572565017461
  0.6757261564452367  0.0931467587509901  0.0559866128304114
  0.6760919311192438  0.0934373411948123  0.2280004868292145
  0.9262455861416358  0.0945314407279757  0.0557120203523131
  0.9257186527281343  0.0931386667343282  0.2272755801446129
  0.1763458061262779  0.3441577007794031  0.0561705805117065
  0.1765603892415750  0.3438161557551535  0.2276022482519861
  0.4265935621281702  0.3425542664506089  0.0555234279269730
  0.4250030879596123  0.3431474944512670  0.2279370909664360
  0.6743822502181913  0.3431151262750486  0.0561765495624923
  0.6743602146257718  0.3429807864728833  0.2278567247036234
  0.9252819466760882  0.3444864772598566  0.0566191696810913
  0.9251611358411880  0.3440562233062134  0.2278965169819673
  0.1762567311675325  0.5938007878103918  0.0565531905768723
  0.1757123475222984  0.5934084070395569  0.2282489784184457
  0.4264446312784912  0.5942222348882035  0.0553519343196241
  0.4289339789773932  0.5927314082649614  0.2278341103667570
  0.6751092135571994  0.5913398591739566  0.0572384887072253
  0.9262629874044166  0.5938182049729167  0.0554258676399406
  0.9229099442751969  0.5950465584834401  0.2273495393475643
  0.1760784590773108  0.8431316002702434  0.0562225463242446
  0.1756335429648769  0.8434233254737531  0.2280000597751650
  0.4258970543412060  0.8429056404267982  0.0565127662016879
  0.4261250929602541  0.8433930192984623  0.2281808099057026
  0.6756536477530842  0.8434626379524466  0.0550552773196016
  0.6768160579853327  0.8427895669014565  0.2273574079959107
  0.9277000853577682  0.8451206878398613  0.0542828391029819
  0.9256439140034036  0.8440515030471387  0.2276643965651308
  0.6594155098383793  0.5795270548431376  0.2788255969319108
  0.5311502311393049  0.4163194547640546  0.4110101992631897
  0.6366149903791737  0.4955910328701799  0.3804643147301175
  0.5257495497529663  0.3814146903196721  0.4670893573755840
  0.7208716092738231  0.5249856245999946  0.4113726264456445
  0.4443757971359224  0.3809802665465620  0.3823766129840735
  0.7098682833500244  0.6584321681795062  0.1943334130919338
 
  0.00000000E+00  0.00000000E+00  0.00000000E+00
  0.00000000E+00  0.00000000E+00  0.00000000E+00
  0.00000000E+00  0.00000000E+00  0.00000000E+00
  0.00000000E+00  0.00000000E+00  0.00000000E+00
  0.00000000E+00  0.00000000E+00  0.00000000E+00
  0.00000000E+00  0.00000000E+00  0.00000000E+00
  0.00000000E+00  0.00000000E+00  0.00000000E+00
  0.00000000E+00  0.00000000E+00  0.00000000E+00
  0.00000000E+00  0.00000000E+00  0.00000000E+00
  0.00000000E+00  0.00000000E+00  0.00000000E+00
  0.00000000E+00  0.00000000E+00  0.00000000E+00
  0.00000000E+00  0.00000000E+00  0.00000000E+00
  0.00000000E+00  0.00000000E+00  0.00000000E+00
  0.00000000E+00  0.00000000E+00  0.00000000E+00
  0.00000000E+00  0.00000000E+00  0.00000000E+00
  0.00000000E+00  0.00000000E+00  0.00000000E+00
  0.00000000E+00  0.00000000E+00  0.00000000E+00
  0.00000000E+00  0.00000000E+00  0.00000000E+00
  0.00000000E+00  0.00000000E+00  0.00000000E+00
  0.00000000E+00  0.00000000E+00  0.00000000E+00
  0.00000000E+00  0.00000000E+00  0.00000000E+00
  0.00000000E+00  0.00000000E+00  0.00000000E+00
  0.00000000E+00  0.00000000E+00  0.00000000E+00
  0.00000000E+00  0.00000000E+00  0.00000000E+00
  0.00000000E+00  0.00000000E+00  0.00000000E+00
  0.00000000E+00  0.00000000E+00  0.00000000E+00
  0.00000000E+00  0.00000000E+00  0.00000000E+00
  0.00000000E+00  0.00000000E+00  0.00000000E+00
  0.00000000E+00  0.00000000E+00  0.00000000E+00
  0.00000000E+00  0.00000000E+00  0.00000000E+00
  0.00000000E+00  0.00000000E+00  0.00000000E+00
  0.00000000E+00  0.00000000E+00  0.00000000E+00
  0.00000000E+00  0.00000000E+00  0.00000000E+00
  0.00000000E+00  0.00000000E+00  0.00000000E+00
  0.00000000E+00  0.00000000E+00  0.00000000E+00
  0.00000000E+00  0.00000000E+00  0.00000000E+00
  0.00000000E+00  0.00000000E+00  0.00000000E+00
  0.00000000E+00  0.00000000E+00  0.00000000E+00
  0.00000000E+00  0.00000000E+00  0.00000000E+00
  0.00000000E+00  0.00000000E+00  0.00000000E+00
  0.00000000E+00  0.00000000E+00  0.00000000E+00
  0.00000000E+00  0.00000000E+00  0.00000000E+00
  0.00000000E+00  0.00000000E+00  0.00000000E+00
  0.00000000E+00  0.00000000E+00  0.00000000E+00
  0.00000000E+00  0.00000000E+00  0.00000000E+00
  0.00000000E+00  0.00000000E+00  0.00000000E+00
  0.00000000E+00  0.00000000E+00  0.00000000E+00
  0.00000000E+00  0.00000000E+00  0.00000000E+00
  0.00000000E+00  0.00000000E+00  0.00000000E+00
  0.00000000E+00  0.00000000E+00  0.00000000E+00
  0.00000000E+00  0.00000000E+00  0.00000000E+00
  0.00000000E+00  0.00000000E+00  0.00000000E+00
  0.00000000E+00  0.00000000E+00  0.00000000E+00
  0.00000000E+00  0.00000000E+00  0.00000000E+00
