POSCARMoS21Pd_                          
   1.00000000000000     
    12.7690000533999992    0.0000000000000000    0.0000000000000000
    -6.3845000266999996   11.0582784271999994    0.0000000000000000
     0.0000000000000000    0.0000000000000000   18.1282997130999988
   Mo   S    Ag   C    H 
    16    31     1     2     4
Direct
  0.0832875537048449  0.1656077522232304  0.1395493274677911
  0.3337900523909246  0.1666606912974458  0.1401320625012306
  0.5834617319624370  0.1666756103501628  0.1400665041773579
  0.8330259023798970  0.1656828604510721  0.1395093029386982
  0.0832967894328204  0.4160026260638683  0.1393318195094631
  0.3346779332984430  0.4169259737234766  0.1387540469849710
  0.5840714377364066  0.4175666029902229  0.1377349385142739
  0.8327097031244387  0.4168488492233933  0.1388472419085778
  0.0828670164476421  0.6655671323073157  0.1397218196125854
  0.3331576373997133  0.6656986617903928  0.1395249381744463
  0.5813906152855310  0.6647589236129928  0.1366973661134495
  0.8336226864292000  0.6645073661007029  0.1368508250222874
  0.0828701383429517  0.9155212977005495  0.1399188191638588
  0.3332829947178818  0.9160885149826825  0.1403000673970900
  0.5832433989636580  0.9156850785816549  0.1396973164718280
  0.8321863363506863  0.9138808358076513  0.1390371430742459
  0.1671598921306857  0.0823232937999131  0.0541071067046426
  0.1663784268098614  0.0827517984960141  0.2258212096448806
  0.4166965525274889  0.0828748777994315  0.0545178218460206
  0.4169124900398714  0.0832041481292371  0.2261284357906573
  0.6659991874860476  0.0826170571990662  0.0539563173968846
  0.6669940062852062  0.0827480614566288  0.2256846188117583
  0.9163027140598775  0.0818911012931404  0.0537330583695854
  0.9159558567947427  0.0812861367050840  0.2249582492389765
  0.1665873307789444  0.3322771667068125  0.0535155212405848
  0.1674098251946099  0.3329283227499489  0.2248549866967485
  0.4174229456431865  0.3322868571289986  0.0528199188714185
  0.4199987573679035  0.3369228622772761  0.2248940793786139
  0.6654702390339083  0.3323754590079145  0.0528097435056823
  0.6672764835347410  0.3368102393975322  0.2249330007086036
  0.9163116304948513  0.3324104957839326  0.0535222266000346
  0.9161909774204482  0.3329471503183342  0.2248828391276422
  0.1665982380903960  0.5829401813093960  0.0536624990339824
  0.1663796468378261  0.5820600785143082  0.2255408814784870
  0.4159458979948726  0.5832271340157699  0.0520819788810841
  0.4190324122344538  0.5821350018332769  0.2247455012539454
  0.6666638769082646  0.5828523474476742  0.0531891227396937
  0.9176907924467276  0.5831448312847898  0.0522298725928298
  0.9132071949620126  0.5818398907100871  0.2250086413275320
  0.1667966894848625  0.8327720564676171  0.0543363124989578
  0.1660796930271005  0.8321680953601142  0.2259256535678090
  0.4164091265133943  0.8329759654583390  0.0541482185349074
  0.4167726221432946  0.8322482522689181  0.2257272383635805
  0.6658152871221631  0.8325529763190960  0.0525448786131691
  0.6659191880817363  0.8282759591213166  0.2244617621272750
  0.9172337540007297  0.8324038137078323  0.0527078092483407
  0.9125633178796837  0.8280866845129247  0.2245986406527131
  0.6675602794816381  0.5837578196157114  0.2582578100592472
  0.6032449210984592  0.5799178048752029  0.3840162129812633
  0.7101258487775545  0.5808357082123330  0.3871575563068778
  0.5995814508281586  0.6635351027493557  0.3865445832092271
  0.5166411895940846  0.4953866489940066  0.3846329192055906
  0.7132433403799000  0.4969462715625244  0.3905619883978936
  0.7961862785428296  0.6652428402033214  0.3924960759606710
 
  0.00000000E+00  0.00000000E+00  0.00000000E+00
  0.00000000E+00  0.00000000E+00  0.00000000E+00
  0.00000000E+00  0.00000000E+00  0.00000000E+00
  0.00000000E+00  0.00000000E+00  0.00000000E+00
  0.00000000E+00  0.00000000E+00  0.00000000E+00
  0.00000000E+00  0.00000000E+00  0.00000000E+00
  0.00000000E+00  0.00000000E+00  0.00000000E+00
  0.00000000E+00  0.00000000E+00  0.00000000E+00
  0.00000000E+00  0.00000000E+00  0.00000000E+00
  0.00000000E+00  0.00000000E+00  0.00000000E+00
  0.00000000E+00  0.00000000E+00  0.00000000E+00
  0.00000000E+00  0.00000000E+00  0.00000000E+00
  0.00000000E+00  0.00000000E+00  0.00000000E+00
  0.00000000E+00  0.00000000E+00  0.00000000E+00
  0.00000000E+00  0.00000000E+00  0.00000000E+00
  0.00000000E+00  0.00000000E+00  0.00000000E+00
  0.00000000E+00  0.00000000E+00  0.00000000E+00
  0.00000000E+00  0.00000000E+00  0.00000000E+00
  0.00000000E+00  0.00000000E+00  0.00000000E+00
  0.00000000E+00  0.00000000E+00  0.00000000E+00
  0.00000000E+00  0.00000000E+00  0.00000000E+00
  0.00000000E+00  0.00000000E+00  0.00000000E+00
  0.00000000E+00  0.00000000E+00  0.00000000E+00
  0.00000000E+00  0.00000000E+00  0.00000000E+00
  0.00000000E+00  0.00000000E+00  0.00000000E+00
  0.00000000E+00  0.00000000E+00  0.00000000E+00
  0.00000000E+00  0.00000000E+00  0.00000000E+00
  0.00000000E+00  0.00000000E+00  0.00000000E+00
  0.00000000E+00  0.00000000E+00  0.00000000E+00
  0.00000000E+00  0.00000000E+00  0.00000000E+00
  0.00000000E+00  0.00000000E+00  0.00000000E+00
  0.00000000E+00  0.00000000E+00  0.00000000E+00
  0.00000000E+00  0.00000000E+00  0.00000000E+00
  0.00000000E+00  0.00000000E+00  0.00000000E+00
  0.00000000E+00  0.00000000E+00  0.00000000E+00
  0.00000000E+00  0.00000000E+00  0.00000000E+00
  0.00000000E+00  0.00000000E+00  0.00000000E+00
  0.00000000E+00  0.00000000E+00  0.00000000E+00
  0.00000000E+00  0.00000000E+00  0.00000000E+00
  0.00000000E+00  0.00000000E+00  0.00000000E+00
  0.00000000E+00  0.00000000E+00  0.00000000E+00
  0.00000000E+00  0.00000000E+00  0.00000000E+00
  0.00000000E+00  0.00000000E+00  0.00000000E+00
  0.00000000E+00  0.00000000E+00  0.00000000E+00
  0.00000000E+00  0.00000000E+00  0.00000000E+00
  0.00000000E+00  0.00000000E+00  0.00000000E+00
  0.00000000E+00  0.00000000E+00  0.00000000E+00
  0.00000000E+00  0.00000000E+00  0.00000000E+00
  0.00000000E+00  0.00000000E+00  0.00000000E+00
  0.00000000E+00  0.00000000E+00  0.00000000E+00
  0.00000000E+00  0.00000000E+00  0.00000000E+00
  0.00000000E+00  0.00000000E+00  0.00000000E+00
  0.00000000E+00  0.00000000E+00  0.00000000E+00
  0.00000000E+00  0.00000000E+00  0.00000000E+00
