Generated by VASPKIT code               
   1.00000000000000     
    12.7690000533999992    0.0000000000000000    0.0000000000000000
    -6.3845000266999996   11.0582784271999994    0.0000000000000000
     0.0000000000000000    0.0000000000000000   18.1282997130999988
   Mo   S    Ag   C    H 
    16    31     1     2     4
Direct
  0.0896222549425530  0.1721411428422720  0.1414597063254486
  0.3390360880167487  0.1711390598415081  0.1426319097017446
  0.5887280695568866  0.1707093210857032  0.1426957821437559
  0.8391801433242283  0.1722018372931477  0.1415658491468664
  0.0893587518542973  0.4222556317199784  0.1418029069121296
  0.3408451608352412  0.4220107652488409  0.1419902748427253
  0.5894060591177517  0.4214773894469425  0.1454216768295626
  0.8378560777391741  0.4222353857157413  0.1426794262903437
  0.0885342624705298  0.6716949505631642  0.1417450964472501
  0.3394445246272386  0.6715186162873764  0.1414132825946997
  0.5922973243559760  0.6762678775468679  0.1370598359802472
  0.8388008418336604  0.6760396455634181  0.1387810649568669
  0.0888643144514044  0.9218351838819080  0.1415416312014758
  0.3390098034406608  0.9213738294690261  0.1421878665742441
  0.5898403590607469  0.9218121173782748  0.1414324966036587
  0.8393988320166103  0.9217155754978129  0.1394920030474172
  0.1736125417708736  0.0888589580607781  0.0559660465186236
  0.1712978433560192  0.0878234601723261  0.2278644122026112
  0.4224730991873182  0.0883077026894439  0.0565848580126401
  0.4217791896370294  0.0870932628547330  0.2286174519315743
  0.6720416749534930  0.0888906526590201  0.0559476329411538
  0.6731336331761860  0.0873171929933958  0.2279702268751591
  0.9235822843793150  0.0905294296216097  0.0549925372510954
  0.9223226590645025  0.0878793032407489  0.2265450578798852
  0.1737836551814854  0.3393092074128168  0.0560954754059250
  0.1729174515639529  0.3388896902125103  0.2274759569552706
  0.4255843400975741  0.3390933843989989  0.0576723896937533
  0.4201095529865615  0.3372593511732849  0.2291099520546271
  0.6706898401405076  0.3387674705793500  0.0579876031236891
  0.6739109668280332  0.3356745740637089  0.2299308153096797
  0.9218903570658211  0.3395942291102548  0.0563308247311378
  0.9228075957875173  0.3389803045615684  0.2277759613218840
  0.1722900036628370  0.5886911815304768  0.0557801047765508
  0.1725907129303684  0.5885269059481798  0.2276673574336113
  0.4220231210372384  0.5878731687319890  0.0541918679756502
  0.4283769904493167  0.5903162397195619  0.2255869482420950
  0.6710252138801184  0.5852150218512988  0.0571563869384252
  0.9216385348444229  0.5886547239668635  0.0553459064184243
  0.9191251532574658  0.5909024933671519  0.2262997515010413
  0.1725627702772325  0.8382764207138101  0.0561025474122060
  0.1717706408496469  0.8380315442018451  0.2277292223101151
  0.4223932430560925  0.8384439476946023  0.0560371564116478
  0.4228097483701592  0.8377448792503691  0.2275363891181189
  0.6726873338230170  0.8410379695615363  0.0525969954055036
  0.6754109791563501  0.8361456094191295  0.2265045227498463
  0.9243503026349655  0.8393677436291945  0.0533813275238883
  0.9189263160766257  0.8376074604796585  0.2268663710592906
  0.6782218827423105  0.6181135626608061  0.2627567936591510
  0.5749717021066270  0.5030326205857196  0.4119482253368957
  0.6732634097227033  0.5479515644633963  0.3692974205482605
  0.5790664817646796  0.4865668812309095  0.4710560698419055
  0.7603032992595359  0.5634764893826293  0.3904975485543197
  0.4862772715834381  0.4822167708999658  0.3910648607612912
  0.6366103005957613  0.4718792375255477  0.2629689154327826
 
 -0.51920792E-03 -0.78758766E-02 -0.55774037E-02
  0.51257264E-03 -0.53111873E-02  0.96468785E-04
  0.10744318E-01 -0.85798058E-02  0.56209500E-03
  0.20012481E-02 -0.39379987E-02 -0.10845938E-02
 -0.35811986E-04 -0.16117257E-02 -0.73130533E-03
 -0.27984262E-02 -0.30687751E-02  0.12653229E-01
  0.32897523E-01 -0.17560279E-01  0.84036418E-01
  0.54905460E-02 -0.12359545E-01  0.91697730E-02
  0.19481139E-02 -0.86447948E-03  0.28518803E-02
  0.47164893E-02 -0.31595092E-03  0.13766635E-02
  0.29033854E-01  0.21453707E-01  0.83493106E-02
 -0.32213432E-01  0.13312538E-01  0.22648554E-01
 -0.13054662E-02 -0.52596119E-02  0.82756384E-03
  0.10676575E-02 -0.72906194E-03 -0.16811507E-02
  0.42470046E-02 -0.24366852E-02 -0.84305521E-03
 -0.40457215E-02 -0.61077522E-02 -0.48444947E-02
 -0.56587469E-03 -0.32226710E-02 -0.17118297E-02
 -0.93561246E-03 -0.48154375E-02 -0.26271419E-02
 -0.74539161E-03 -0.18114972E-02 -0.50365884E-02
  0.24965577E-02 -0.32419120E-02 -0.15950711E-02
  0.87541696E-02  0.72951138E-04 -0.31250199E-01
  0.41912683E-02 -0.31675703E-02 -0.92872426E-02
 -0.26666012E-03 -0.32752812E-02  0.10782970E-04
  0.94047144E-03 -0.30000545E-02 -0.24648802E-02
  0.47508390E-02  0.23423696E-02  0.22726513E-02
  0.11439785E-02  0.54377094E-02  0.67567308E-02
 -0.47269668E-03  0.71442618E-02  0.21969499E-01
 -0.39980163E-01 -0.52499631E-01  0.11670012E-01
  0.44252705E-02  0.13159580E-02  0.13125201E-01
  0.42690653E-01 -0.45168032E-01  0.17836728E-01
  0.35584004E-02 -0.31358735E-03 -0.28199872E-02
  0.64760705E-02 -0.35077052E-02  0.91644174E-03
  0.21412030E-02 -0.64458969E-04  0.13941445E-03
  0.17838705E-02 -0.13058391E-02  0.82046092E-03
  0.13327263E-01 -0.13750720E-02  0.78757380E-02
  0.13859559E-01  0.25987596E-01  0.21207248E-01
 -0.11126886E-01 -0.37268953E-01  0.38293724E-01
 -0.11056499E-01  0.73041114E-02  0.30761000E-01
 -0.60448123E-03  0.14957479E-02 -0.25241804E-02
 -0.14963984E-03 -0.30235903E-02 -0.10956583E-02
  0.18483820E-02 -0.13738879E-02 -0.44464480E-03
  0.16037435E-02 -0.30930618E-02 -0.62860821E-03
  0.10713919E-02  0.72362521E-03 -0.58563893E-03
  0.39281352E-02 -0.54692333E-02  0.48679436E-02
  0.60260074E-02  0.38220786E-02  0.43128890E-02
  0.19578004E-02 -0.10189109E-01  0.86033175E-03
 -0.69141435E-02  0.52142122E-02  0.84373051E-02
  0.53907774E-01 -0.11009703E-01  0.12428329E+00
 -0.53850251E-01  0.20210319E-01  0.12187359E+00
  0.13508999E-01  0.25792958E+00  0.13923696E+00
  0.96337048E-02 -0.12530278E+00  0.79173877E-02
 -0.32248835E-01  0.82323686E-01  0.10948109E+00
  0.42136505E-02  0.80433720E-01  0.43865960E-01
 -0.12271973E+00 -0.14420456E+00 -0.87627697E+00
