POSCARPt                                
   1.00000000000000     
    12.7690000533999992    0.0000000000000000    0.0000000000000000
    -6.3845000266999996   11.0582784271999994    0.0000000000000000
     0.0000000000000000    0.0000000000000000   18.1282997130999988
   Mo   S    Ag   C    H 
    16    31     1     2     6
Direct
  0.0848237868926381  0.1654918455796883  0.1385943061875743
  0.3347949992377374  0.1659755118526258  0.1382233922349597
  0.5856454010149813  0.1662985497008862  0.1386332744601707
  0.8348586549813520  0.1654317029687713  0.1387764528311943
  0.0848384879378031  0.4156061948999957  0.1378728935181379
  0.3351833066937149  0.4160912030903829  0.1376741475713213
  0.5824481802323120  0.4127910291003052  0.1366988243301962
  0.8348654121137823  0.4156358086207358  0.1399271859289070
  0.0871949857416286  0.6669669847641463  0.1381742447779364
  0.3344969303342207  0.6661554031958422  0.1367170087991188
  0.5830235322839543  0.6670526715943917  0.1389418869217137
  0.8365940787018717  0.6673141400364093  0.1441346343182076
  0.0855163303981818  0.9159539124416801  0.1397502954159458
  0.3358169402699765  0.9166625642667934  0.1382042978003030
  0.5855589483885266  0.9162494419088242  0.1385631829416197
  0.8346376768833571  0.9146101037213566  0.1401794194447839
  0.1674587265362046  0.0812897282915293  0.0528695074991483
  0.1691966186583436  0.0837265364109228  0.2248105722386228
  0.4191976760459495  0.0834228093095928  0.0525555432174194
  0.4186196433319986  0.0829634886628208  0.2241901076515324
  0.6686584451988888  0.0827115178537488  0.0526745659170171
  0.6684691021109515  0.0825718524316383  0.2247299950341319
  0.9174568326555169  0.0805891442904132  0.0533574882308020
  0.9186555786016077  0.0830268222964311  0.2248868130821710
  0.1678894450057657  0.3316984200229716  0.0521398435849245
  0.1686320523872976  0.3328769924592824  0.2237627246531267
  0.4179689540687983  0.3317433620466936  0.0514598663660475
  0.4190517898883958  0.3342551300947706  0.2239576621604798
  0.6691825699935303  0.3329345158657894  0.0525029797478717
  0.6672010529702049  0.3339764299453636  0.2246734339154397
  0.9172334683288254  0.3323781426330453  0.0529270963859201
  0.9190304578292068  0.3316433046837753  0.2246303417664237
  0.1673751230968307  0.5822173570015894  0.0512902753137975
  0.1698872200457215  0.5824875225180646  0.2235180384847953
  0.4190747648490519  0.5829394800738392  0.0513697255501461
  0.4153839224522459  0.5825151570845527  0.2230201412758102
  0.6705691811930246  0.5840737425406984  0.0580082411101225
  0.9166227542166010  0.5835940024226470  0.0552803931315839
  0.9262837568937343  0.5803937970993273  0.2267545114091466
  0.1684668985718042  0.8337292408214614  0.0527227429024551
  0.1705486263199514  0.8332377834845123  0.2247222222314017
  0.4195633157847856  0.8340557297318105  0.0519350920034948
  0.4181458375925640  0.8321223862784163  0.2236263525498607
  0.6686203968090888  0.8319195161246622  0.0529286370558214
  0.6677486272920372  0.8314639516562359  0.2254960207495209
  0.9165750664117560  0.8283596777269785  0.0555587545896324
  0.9201599726292835  0.8356469337487648  0.2274077882113175
  0.6579748304663120  0.5852538565795224  0.2560376123231982
  0.5681766270341292  0.5761925451588489  0.3696719278758861
  0.6742776135546975  0.5727237660972798  0.3893869249533062
  0.5669432462751607  0.6608512644898509  0.3718748310142961
  0.4812580475357587  0.4928831997442338  0.3655447920976835
  0.6625939067715514  0.4860498229402415  0.4086030486046247
  0.7467845887583888  0.6527319262140467  0.4168143964444178
  0.7517529683708799  0.5820636848525982  0.3308436345323580
  0.8026477660593718  0.5981386305059784  0.2672897551186753
 
 -0.75287017E-03  0.85053739E-03 -0.54533291E-03
  0.32702999E-04 -0.53891301E-03 -0.13312979E-02
 -0.14309921E-03 -0.28485310E-03  0.16644144E-02
  0.22107471E-03  0.13710648E-03  0.88782594E-04
 -0.14649647E-02 -0.51447061E-04  0.48725395E-04
 -0.45537232E-02  0.52569433E-02  0.29772167E-02
  0.51689677E-02  0.90866324E-03  0.39443938E-02
 -0.89711988E-03 -0.15643457E-02  0.52033616E-02
 -0.10973937E-01  0.65635296E-03  0.97466626E-02
 -0.45794790E-02  0.17983635E-03 -0.28814422E-02
 -0.96121687E-02 -0.14737964E-01  0.22063077E-01
  0.30613354E-01 -0.34577311E-01  0.69655104E-01
  0.35137119E-02  0.15440015E-02 -0.41210493E-02
  0.86367904E-03 -0.77542220E-03  0.64672870E-03
 -0.10710018E-02 -0.17031543E-03 -0.10946303E-02
 -0.77012874E-02  0.55816122E-02  0.56649290E-02
 -0.16512146E-02  0.66524342E-03 -0.62469148E-03
  0.57159803E-03  0.10343252E-02 -0.11048285E-02
  0.13939753E-03 -0.64010133E-04  0.27916696E-04
 -0.11430045E-03 -0.14589784E-04  0.12566612E-04
  0.30420577E-04 -0.82225392E-04 -0.30452584E-04
 -0.54444105E-04 -0.37339382E-03 -0.88334871E-04
  0.18386124E-02 -0.28114506E-02 -0.35885094E-02
 -0.93517074E-03  0.25079301E-02  0.13690930E-02
  0.58469530E-04  0.94522426E-03 -0.27829465E-03
 -0.29010305E-03 -0.10371395E-03  0.10409886E-02
  0.93703297E-03  0.94707283E-03  0.84361951E-03
 -0.21084249E-02 -0.35408418E-02 -0.27057251E-02
  0.10662926E-02  0.39693063E-03 -0.34221778E-03
  0.32274693E-02 -0.17168443E-02  0.26066873E-02
  0.69469794E-03  0.32192166E-03 -0.16049526E-03
  0.18862649E-02 -0.52765505E-02  0.44857035E-03
 -0.69896758E-02  0.20186300E-02  0.28097819E-02
 -0.87791878E-03 -0.16622456E-03  0.89783071E-03
  0.16003017E-02  0.26099339E-02  0.39758995E-02
 -0.17483619E-01 -0.85390898E-03  0.83212338E-02
  0.95890268E-02  0.29717168E-02  0.24899048E-01
 -0.32586168E-02 -0.25289115E-02  0.13548513E-01
 -0.29951734E-02 -0.31135848E-01  0.66575957E-01
 -0.12756518E-02 -0.13483985E-02  0.15873037E-02
  0.20383966E-02  0.36651542E-02  0.21993106E-02
 -0.28324211E-03  0.53406003E-03 -0.13329769E-02
  0.11041076E-02 -0.10042247E-02 -0.26053394E-03
  0.35577482E-02 -0.33148184E-02  0.77474613E-02
 -0.11999486E-01  0.13228456E-01  0.65734368E-02
 -0.91832952E-02 -0.61102281E-02  0.14698261E-01
  0.10658249E-01  0.20661242E-01 -0.23599888E-02
  0.65651267E-02  0.31867464E-02  0.44675040E-01
  0.41974858E-01  0.15071258E-01 -0.19626382E+00
  0.27553437E+00  0.15239327E-01 -0.24142541E+00
  0.16300957E-01 -0.10896985E-01  0.23050480E-01
  0.15588666E-01  0.62260124E-02  0.33548565E-01
 -0.10927632E-01  0.52480508E-02  0.78621587E-01
 -0.14780143E-01 -0.16993198E-01  0.80339670E-01
 -0.37276290E+00 -0.71096640E-01  0.52019169E+00
  0.64338852E-01  0.99540627E-01 -0.60177525E+00
