Generated by VASPKIT code
 1.000000
   12.7690000533999992    0.0000000000000000    0.0000000000000000
   -6.3845000266999996   11.0582784271999994    0.0000000000000000
    0.0000000000000000    0.0000000000000000   18.1282997130999988
   Mo   S    Ag   C    H 
    16    31     1     2     6
Selective Dynamics
Direct
    0.0901055236677611    0.1552628338347316    0.1424953791801534    F  F  F            Mo1
    0.3404936289879368    0.1562668451161498    0.1426924522035241    F  F  F            Mo2
    0.5901952168411847    0.1560623526010525    0.1426550629172774    F  F  F            Mo3
    0.8398092753787514    0.1550851899091364    0.1423326160460818    F  F  F            Mo4
    0.0902942911242110    0.4055936292092925    0.1425564057620784    F  F  F            Mo5
    0.3416789862479240    0.4067753263584126    0.1435928163625989    F  F  F            Mo6
    0.5941900044080204    0.4067070873929084    0.1401052331030586    F  F  F            Mo7
    0.8393177819622368    0.4054201619286817    0.1407281375263108    F  F  F            Mo8
    0.0891397569354270    0.6548852521547299    0.1423650344329657    F  F  F            Mo9
    0.3394163670069110    0.6561530829681734    0.1437187980575441    F  F  F           Mo10
    0.5894599631909547    0.6550084316683754    0.1453618226881646    F  F  F           Mo11
    0.8417305043532413    0.6536052561367438    0.1373972196971832    F  F  F           Mo12
    0.0893721489178376    0.9053209870966203    0.1420896109982945    F  F  F           Mo13
    0.3397093502009547    0.9058413147656472    0.1431955158985058    F  F  F           Mo14
    0.5893610167476306    0.9055306958761810    0.1434058958847821    F  F  F           Mo15
    0.8384759882331267    0.9038564585938527    0.1422517799724886    F  F  F           Mo16
    0.1740018706996002    0.0726127438302439    0.0565549507439217    F  F  F             S1
    0.1729350624094398    0.0719070480551293    0.2284037124930887    F  F  F             S2
    0.4232372667572706    0.0723490749943537    0.0571086836865396    F  F  F             S3
    0.4234785642398058    0.0730545543586221    0.2287759521736982    F  F  F             S4
    0.6725219650364880    0.0713087542087560    0.0569169365189592    F  F  F             S5
    0.6737860594101364    0.0731978893750466    0.2287704414197442    F  F  F             S6
    0.9229330212627941    0.0713275800953412    0.0566421727982993    F  F  F             S7
    0.9229829671150306    0.0713219008653855    0.2280236015295594    F  F  F             S8
    0.1750023607128646    0.3229256036747598    0.0571714917383431    F  F  F             S9
    0.1732324480454426    0.3216024365481382    0.2285423912573514    F  F  F            S10
    0.4246713635899632    0.3233185448066712    0.0563578031630242    F  F  F            S11
    0.4286486142463216    0.3255057535850422    0.2273389555482446    F  F  F            S12
    0.6720690004575224    0.3209139651678090    0.0547201982625904    F  F  F            S13
    0.6754460763371885    0.3260075174328109    0.2279709596360344    F  F  F            S14
    0.9240926192074379    0.3213818635890675    0.0561236824368778    F  F  F            S15
    0.9226713837280358    0.3222819248415266    0.2275341839104536    F  F  F            S16
    0.1742695980159329    0.5728468173685056    0.0569856860567867    F  F  F            S17
    0.1715068416027242    0.5716452871282611    0.2288960290012842    F  F  F            S18
    0.4250697936335944    0.5739805954281648    0.0587105038636154    F  F  F            S19
    0.4200142421126521    0.5708913006648380    0.2309179471339127    F  F  F            S20
    0.6717058860801093    0.5735801134498142    0.0575177316965866    F  F  F            S21
    0.9255316360974989    0.5717625921791754    0.0535682600623230    F  F  F            S22
    0.9175267420081190    0.5698636017789284    0.2274052547112370    F  F  F            S23
    0.1735960930957899    0.8223434670103505    0.0569108715542953    F  F  F            S24
    0.1720126878398947    0.8218393443846340    0.2283277555305507    F  F  F            S25
    0.4230638999279553    0.8223204481483434    0.0575652280012665    F  F  F            S26
    0.4228377259053844    0.8230718365053654    0.2295286673977735    F  F  F            S27
    0.6703821772022418    0.8188814862741775    0.0579734845413913    F  F  F            S28
    0.6743377735412682    0.8234335448625862    0.2293525685355986    F  F  F            S29
    0.9235975195168276    0.8232443399279790    0.0545128221464371    F  F  F            S30
    0.9189217624526695    0.8166835898047334    0.2262500848327322    F  F  F            S31
    0.6989165165408953    0.5737152371650888    0.2636284436981000    F  F  F            Ag1
    0.6343401015513346    0.5614324122572555    0.3772565026842640    T  T  T             C1
    0.6404343435729161    0.6727189930653543    0.4108146070844099    T  T  T             C2
    0.5450446080665308    0.4798719114373358    0.3813356296957985    T  T  T             H1
    0.7036260687406861    0.5422057834694662    0.3993463571797267    T  T  T             H2
    0.7285099840081435    0.7545006178721608    0.4017457024954074    T  T  T             H3
    0.6262440195855592    0.6616892951654315    0.4711101563844948    T  T  T             H4
    0.5704940062073314    0.6900182341288879    0.3883383602347976    T  T  T             H5
    0.5798976074961409    0.5900570024935173    0.2682391406701071    T  T  T             H6
