Generated by VASPKIT code               
   1.00000000000000     
    12.7690000533999992    0.0000000000000000    0.0000000000000000
    -6.3845000266999996   11.0582784271999994    0.0000000000000000
     0.0000000000000000    0.0000000000000000   18.1282997130999988
   Mo   S    Au   C    H 
    16    31     1     2     6
Direct
  0.0844782251485531  0.1538021116558187  0.1419212536533701
  0.3350956266753322  0.1548799533425353  0.1422771203502754
  0.5846071765174196  0.1544940973625227  0.1420563677752222
  0.8342528456265198  0.1536256518718606  0.1417187605338156
  0.0845891178699448  0.4041694148383015  0.1420226793857835
  0.3357356879677663  0.4050815730080821  0.1427425138108370
  0.5887100801008516  0.4068802551848134  0.1409468912713612
  0.8339571821244850  0.4043446526267203  0.1406867320680261
  0.0835530645553580  0.6534808171147583  0.1421013370568085
  0.3335612570233402  0.6544931970050659  0.1428917305800470
  0.5824469064783331  0.6516862525051738  0.1439845782648667
  0.8354710280599339  0.6514812279803439  0.1384676530777318
  0.0843402277232742  0.9041261319230008  0.1416209656327007
  0.3342334877974740  0.9043787415620526  0.1425216597213425
  0.5836848035591304  0.9038005581701936  0.1424617111213088
  0.8332550855784149  0.9023924725140510  0.1418430701081745
  0.1685933247890435  0.0712112491256846  0.0560333127987247
  0.1676155243833805  0.0707809182950212  0.2279232070195199
  0.4176867792081714  0.0709467609591832  0.0565006425773100
  0.4181161856837802  0.0715940011936351  0.2282280918788413
  0.6671274695483974  0.0699944270007060  0.0561584281442291
  0.6681936111394066  0.0713620247273516  0.2279459910003114
  0.9173183051554943  0.0696590792677227  0.0560702707721867
  0.9173845403325528  0.0699070393385195  0.2274971579420835
  0.1688042055155900  0.3211525432435628  0.0564651907402261
  0.1675943916992161  0.3201535748656683  0.2279295073811851
  0.4201300789162771  0.3221659798587058  0.0561997598198012
  0.4220090999173682  0.3237327500182188  0.2271389077855613
  0.6664010655106417  0.3204638194562501  0.0548807245118739
  0.6696859666454638  0.3236202138457981  0.2274211907622348
  0.9182591022065222  0.3202138068612781  0.0556846092086283
  0.9171164102511944  0.3206752227265931  0.2271404286631687
  0.1680951804594327  0.5711833448785627  0.0564446436242915
  0.1660138668880650  0.5701921619091397  0.2284196283727500
  0.4189371028191647  0.5722624799283139  0.0575829720006887
  0.4137108799539085  0.5686318870633409  0.2302199858772787
  0.6670284255996008  0.5721780301640251  0.0571861534184716
  0.9194627441135053  0.5710405997075049  0.0539553735592677
  0.9122907155156199  0.5681417460337127  0.2279687048348127
  0.1679261787890637  0.8206563721470019  0.0563595536824152
  0.1668208618437465  0.8207005114189728  0.2279178959274284
  0.4173210632522414  0.8207100685368101  0.0567113056113339
  0.4173807464346819  0.8214957047767748  0.2286792047124674
  0.6651692949431357  0.8172343627761200  0.0571912289787257
  0.6678313636244428  0.8205977896427658  0.2280106116543769
  0.9178105146363271  0.8208358655956983  0.0547352957932715
  0.9149376352680947  0.8166002014037745  0.2259088904825040
  0.6878027654907497  0.5696619637800402  0.2650008616382391
  0.6819417881946450  0.5730596481695578  0.3825350230072136
  0.6678618075168640  0.6750223210247505  0.4153962053918212
  0.6074053813712635  0.4835348196135223  0.3987671609632317
  0.7678490897979013  0.5789418603894623  0.3990232944396785
  0.7412575875013525  0.7644032287916522  0.3981621609689796
  0.6689253760162082  0.6723220374753723  0.4762537347917722
  0.5820315274675129  0.6688104703747690  0.3988713332801341
  0.5700936780394157  0.5849887535922791  0.2647798593742882
 
 -0.30226076E-04 -0.19621420E-02  0.43600757E-02
 -0.15448300E-02  0.20372286E-02  0.33158527E-02
  0.16465268E-02  0.79225420E-03 -0.13516258E-02
 -0.87151233E-03 -0.32388791E-03  0.14112208E-02
 -0.19947673E-02 -0.40739135E-02 -0.31627811E-02
 -0.10406645E-01 -0.31177052E-02  0.14395016E-01
  0.39684336E-01 -0.13504112E-01 -0.21980636E-02
  0.10001815E-02 -0.15315865E-02 -0.11633371E-01
 -0.36567698E-03  0.99932639E-03 -0.44059653E-02
 -0.66897260E-02 -0.15231671E-02  0.84099370E-02
 -0.23476115E-01 -0.86851277E-02  0.10160008E+00
  0.31802457E-02 -0.18771140E-01  0.68749561E-02
 -0.46370413E-03  0.33677916E-03  0.30537641E-02
 -0.22561243E-02  0.31555040E-03  0.27255612E-03
 -0.71770779E-02  0.91456776E-02  0.15863399E-01
  0.17932010E-02 -0.23145049E-02  0.24129137E-01
 -0.38386457E-03  0.14546967E-02  0.25024802E-02
  0.11625394E-02  0.66944975E-04  0.38892685E-02
 -0.25714158E-02  0.20356543E-02  0.14044738E-02
 -0.17054292E-02  0.11698862E-02 -0.64623393E-03
  0.19483726E-02 -0.27317928E-02  0.30902601E-02
 -0.80949987E-02  0.13777508E-01  0.52136031E-02
  0.72333410E-03 -0.11773389E-01  0.96068071E-02
  0.20881646E-02  0.59979945E-02  0.87316117E-02
  0.39110013E-02 -0.22771705E-02  0.30243406E-02
 -0.14066380E-01 -0.83760272E-02  0.69731095E-02
 -0.26956333E-02  0.12578024E-01  0.87657503E-02
  0.13746101E-01  0.41301963E-02  0.15171182E-02
  0.54939292E-02 -0.13544574E-01 -0.13976181E-01
  0.20187221E-01  0.11226647E-02  0.69983978E-02
 -0.10040582E-03 -0.49960092E-02 -0.84385100E-02
 -0.64600959E-03  0.18414169E-02 -0.38165437E-02
  0.20684432E-02 -0.14570298E-02 -0.27635228E-02
 -0.10250421E-01 -0.38252891E-02 -0.19452381E-02
  0.11633776E-01 -0.17720744E-02  0.35509600E-01
 -0.83826793E-01 -0.24567147E-01  0.30531456E-01
 -0.32801982E-01  0.10476987E-01  0.42178745E-01
 -0.55451315E-02  0.93332295E-02 -0.10444492E-01
  0.12700208E-01 -0.62195605E-02 -0.60112539E-02
 -0.24920351E-02  0.26958809E-02 -0.19761850E-02
 -0.10798261E-02 -0.79270343E-03 -0.11352515E-02
  0.39721178E-02  0.24983202E-02  0.56165725E-02
 -0.10522980E-01  0.29808166E-02  0.83794515E-02
  0.15856216E-02 -0.12557162E-01  0.50250681E-01
 -0.18221942E-01  0.57309020E-01  0.41238763E-01
 -0.66571532E-02 -0.93938519E-02  0.10221970E-01
  0.14856912E-01 -0.13604402E-01 -0.57267991E-02
  0.15681278E+00 -0.14771543E+00  0.91559264E-01
  0.10410935E-01 -0.25729524E-01  0.43576810E-01
 -0.22849980E-01 -0.13751889E-01 -0.19035614E-01
 -0.20457158E-01 -0.16135530E-01  0.48674374E-01
 -0.19853837E-01 -0.34839179E-01  0.14430943E+00
  0.54955938E-02 -0.16579165E-01 -0.96750606E-02
 -0.87584543E-01  0.59886905E-02 -0.16079642E-01
 -0.11143953E-02 -0.10915132E-01 -0.78480202E-01
  0.11319790E+00  0.43511521E+00 -0.81207394E+00
