POSCARMoS21Pd_                          
   1.00000000000000     
    12.7690000533999992    0.0000000000000000    0.0000000000000000
    -6.3845000266999996   11.0582784271999994    0.0000000000000000
     0.0000000000000000    0.0000000000000000   18.1282997130999988
   Mo   S    Au   C    H 
    16    31     1     2     4
Direct
  0.0839418019135498  0.1655793744076301  0.1403057126763670
  0.3345189458146559  0.1666279143080833  0.1406677106825685
  0.5841973820104529  0.1666031456202891  0.1407025175307664
  0.8337755515940289  0.1655737373557907  0.1403050671959470
  0.0840473684479556  0.4159561995554234  0.1399672965413097
  0.3351078597316242  0.4169079073016951  0.1395327890445357
  0.5851557928469694  0.4181292905314937  0.1399165998783879
  0.8338645042614563  0.4168816051302697  0.1398043811773571
  0.0839854365619153  0.6656340177842086  0.1401503398097297
  0.3335565442268458  0.6656816010500736  0.1398593653828606
  0.5810113913396265  0.6643330243954066  0.1382579350011569
  0.8352992122706628  0.6642739421618210  0.1385835102808697
  0.0839615410705848  0.9157781736555252  0.1404322930869200
  0.3340807024036643  0.9161836070992875  0.1406369614950704
  0.5837930483315731  0.9157630993028644  0.1402374828276126
  0.8329269237599455  0.9139127052084132  0.1401772368084533
  0.1678319544640412  0.0826079159738970  0.0546139742419640
  0.1672766740723345  0.0827623186592376  0.2264037629707749
  0.4176145918135071  0.0831524628867183  0.0549314873872206
  0.4175648122640340  0.0830128628288173  0.2266016100639317
  0.6669477671481920  0.0827424877162934  0.0545580097001850
  0.6675393805652567  0.0825566357105345  0.2263481352170664
  0.9168306922110876  0.0815050915023910  0.0546399680351421
  0.9167407695812898  0.0813791178228349  0.2259420617160910
  0.1672748509154053  0.3321616967546445  0.0541826331658079
  0.1679813303302965  0.3328641431654950  0.2256069670232646
  0.4192195987780596  0.3330559999970618  0.0539545295431863
  0.4193689801588718  0.3356149007728308  0.2257032244175548
  0.6661173376239449  0.3331442936018787  0.0540786731270652
  0.6681987990070472  0.3356044086679556  0.2258276110125774
  0.9169836999406512  0.3322779548666573  0.0542773062140826
  0.9171131152575311  0.3327747051500487  0.2256777356681062
  0.1670766675889738  0.5825722549214389  0.0540317784964241
  0.1672181404995661  0.5821773977207947  0.2260550866812180
  0.4168358204459237  0.5832756360017051  0.0528359926455862
  0.4179338312108071  0.5820968780416486  0.2254868105433056
  0.6677947021794975  0.5832049359021126  0.0551490154989985
  0.9183579849306249  0.5832065794172739  0.0531809811892589
  0.9158051846186840  0.5819332265163180  0.2260325281258148
  0.1675855909138299  0.8329229868713509  0.0546554078364948
  0.1671847220592467  0.8323583587830414  0.2263201911872422
  0.4172291312948836  0.8330788606990701  0.0544601238138694
  0.4172007884890620  0.8322414217121347  0.2261408841940756
  0.6665391717068773  0.8320938773060443  0.0536820309851190
  0.6658968685629746  0.8289376010797284  0.2252085844996137
  0.9175956779064242  0.8320431197970261  0.0538958165736570
  0.9149521201214285  0.8291150185676949  0.2254505508214717
  0.6686017326545605  0.5829808270910675  0.2563334797415835
  0.5970305278545122  0.5803015838566089  0.3747855119035611
  0.7048495671784375  0.5807113298889898  0.3814021526456221
  0.5935786772136046  0.6639317861488531  0.3781526588591967
  0.5102637658764670  0.4960107721163416  0.3761114810035500
  0.7065494298459157  0.4966338713069031  0.3884485820851820
  0.7897918261306166  0.6647746053083053  0.3906842917451818
 
  0.00000000E+00  0.00000000E+00  0.00000000E+00
  0.00000000E+00  0.00000000E+00  0.00000000E+00
  0.00000000E+00  0.00000000E+00  0.00000000E+00
  0.00000000E+00  0.00000000E+00  0.00000000E+00
  0.00000000E+00  0.00000000E+00  0.00000000E+00
  0.00000000E+00  0.00000000E+00  0.00000000E+00
  0.00000000E+00  0.00000000E+00  0.00000000E+00
  0.00000000E+00  0.00000000E+00  0.00000000E+00
  0.00000000E+00  0.00000000E+00  0.00000000E+00
  0.00000000E+00  0.00000000E+00  0.00000000E+00
  0.00000000E+00  0.00000000E+00  0.00000000E+00
  0.00000000E+00  0.00000000E+00  0.00000000E+00
  0.00000000E+00  0.00000000E+00  0.00000000E+00
  0.00000000E+00  0.00000000E+00  0.00000000E+00
  0.00000000E+00  0.00000000E+00  0.00000000E+00
  0.00000000E+00  0.00000000E+00  0.00000000E+00
  0.00000000E+00  0.00000000E+00  0.00000000E+00
  0.00000000E+00  0.00000000E+00  0.00000000E+00
  0.00000000E+00  0.00000000E+00  0.00000000E+00
  0.00000000E+00  0.00000000E+00  0.00000000E+00
  0.00000000E+00  0.00000000E+00  0.00000000E+00
  0.00000000E+00  0.00000000E+00  0.00000000E+00
  0.00000000E+00  0.00000000E+00  0.00000000E+00
  0.00000000E+00  0.00000000E+00  0.00000000E+00
  0.00000000E+00  0.00000000E+00  0.00000000E+00
  0.00000000E+00  0.00000000E+00  0.00000000E+00
  0.00000000E+00  0.00000000E+00  0.00000000E+00
  0.00000000E+00  0.00000000E+00  0.00000000E+00
  0.00000000E+00  0.00000000E+00  0.00000000E+00
  0.00000000E+00  0.00000000E+00  0.00000000E+00
  0.00000000E+00  0.00000000E+00  0.00000000E+00
  0.00000000E+00  0.00000000E+00  0.00000000E+00
  0.00000000E+00  0.00000000E+00  0.00000000E+00
  0.00000000E+00  0.00000000E+00  0.00000000E+00
  0.00000000E+00  0.00000000E+00  0.00000000E+00
  0.00000000E+00  0.00000000E+00  0.00000000E+00
  0.00000000E+00  0.00000000E+00  0.00000000E+00
  0.00000000E+00  0.00000000E+00  0.00000000E+00
  0.00000000E+00  0.00000000E+00  0.00000000E+00
  0.00000000E+00  0.00000000E+00  0.00000000E+00
  0.00000000E+00  0.00000000E+00  0.00000000E+00
  0.00000000E+00  0.00000000E+00  0.00000000E+00
  0.00000000E+00  0.00000000E+00  0.00000000E+00
  0.00000000E+00  0.00000000E+00  0.00000000E+00
  0.00000000E+00  0.00000000E+00  0.00000000E+00
  0.00000000E+00  0.00000000E+00  0.00000000E+00
  0.00000000E+00  0.00000000E+00  0.00000000E+00
  0.00000000E+00  0.00000000E+00  0.00000000E+00
  0.00000000E+00  0.00000000E+00  0.00000000E+00
  0.00000000E+00  0.00000000E+00  0.00000000E+00
  0.00000000E+00  0.00000000E+00  0.00000000E+00
  0.00000000E+00  0.00000000E+00  0.00000000E+00
  0.00000000E+00  0.00000000E+00  0.00000000E+00
  0.00000000E+00  0.00000000E+00  0.00000000E+00
