Generated by VASPKIT code
 1.000000
   12.7690000533999992    0.0000000000000000    0.0000000000000000
   -6.3845000266999996   11.0582784271999994    0.0000000000000000
    0.0000000000000000    0.0000000000000000   18.1282997130999988
   Mo   S    Au   C    H 
    16    31     1     2     4
Direct
    0.0769827900000000    0.1614422600000000    0.1046153800000000    F  F  F            Mo1
    0.3259012600000000    0.1601444700000000    0.1042722000000000    F  F  F            Mo2
    0.5763554500000000    0.1600578900000000    0.1041546200000000    F  F  F            Mo3
    0.8265779500000000    0.1614356500000000    0.1045081200000000    F  F  F            Mo4
    0.0768747200000000    0.4117234000000000    0.1054637700000000    F  F  F            Mo5
    0.3286007200000000    0.4117822700000000    0.1052630400000000    F  F  F            Mo6
    0.5750805100000000    0.4081794900000000    0.1064140200000000    F  F  F            Mo7
    0.8253840200000000    0.4118199000000000    0.1052967900000000    F  F  F            Mo8
    0.0763624300000000    0.6610440900000000    0.1055113900000000    F  F  F            Mo9
    0.3268224500000000    0.6610592400000000    0.1053206300000000    F  F  F           Mo10
    0.5785029000000000    0.6631164800000000    0.1040872200000000    F  F  F           Mo11
    0.8262940600000001    0.6629434199999999    0.1046399000000000    F  F  F           Mo12
    0.0767395600000000    0.9113023300000000    0.1040934500000000    F  F  F           Mo13
    0.3264250300000000    0.9107560900000000    0.1045757900000000    F  F  F           Mo14
    0.5767028300000000    0.9113146500000000    0.1039065300000000    F  F  F           Mo15
    0.8262476300000000    0.9105022400000000    0.1040984100000000    F  F  F           Mo16
    0.1596506200000000    0.0779881600000000    0.0182407700000000    F  F  F             S1
    0.1596611600000000    0.0774012000000000    0.1903956600000000    F  F  F             S2
    0.4095289500000000    0.0770431500000000    0.0183508000000000    F  F  F             S3
    0.4097688100000000    0.0772170200000000    0.1903504300000000    F  F  F             S4
    0.6604893500000000    0.0781116900000000    0.0180907500000000    F  F  F             S5
    0.6599393099999999    0.0773461900000000    0.1902432800000000    F  F  F             S6
    0.9103313000000000    0.0783998200000000    0.0186326100000000    F  F  F             S7
    0.9098616700000000    0.0777043500000000    0.1902492100000000    F  F  F             S8
    0.1611662500000000    0.3291468700000000    0.0195528200000000    F  F  F             S9
    0.1607155800000000    0.3280713600000000    0.1908912600000000    F  F  F            S10
    0.4115348200000000    0.3281269500000000    0.0190705800000000    F  F  F            S11
    0.4083325500000000    0.3253365700000000    0.1907896800000000    F  F  F            S12
    0.6587157800000000    0.3281277500000000    0.0190522700000000    F  F  F            S13
    0.6590429000000000    0.3250669500000000    0.1906166700000000    F  F  F            S14
    0.9101562100000000    0.3292597000000000    0.0195230800000000    F  F  F            S15
    0.9094250100000000    0.3279757700000000    0.1908544700000000    F  F  F            S16
    0.1598736000000000    0.5779415700000000    0.0196284100000000    F  F  F            S17
    0.1601186600000000    0.5779448700000001    0.1915760200000000    F  F  F            S18
    0.4115360000000000    0.5789606000000000    0.0191059600000000    F  F  F            S19
    0.4134097800000000    0.5787850800000000    0.1905730800000000    F  F  F            S20
    0.6590851500000000    0.5758592700000000    0.0218432300000000    F  F  F            S21
    0.9094612300000000    0.5792731100000000    0.0194182600000000    F  F  F            S22
    0.9076338500000000    0.5786757800000000    0.1907788500000000    F  F  F            S23
    0.1595161800000000    0.8266826200000000    0.0189282300000000    F  F  F            S24
    0.1601774200000000    0.8283973600000000    0.1907544200000000    F  F  F            S25
    0.4092196000000000    0.8267456800000000    0.0187918800000000    F  F  F            S26
    0.4105079300000000    0.8283258999999999    0.1906132600000000    F  F  F            S27
    0.6591617500000000    0.8267802900000000    0.0176805600000000    F  F  F            S28
    0.6606927000000000    0.8292009000000000    0.1899056800000000    F  F  F            S29
    0.9094680100000000    0.8264950800000000    0.0180020100000000    F  F  F            S30
    0.9106867700000000    0.8295104800000001    0.1900974500000000    F  F  F            S31
    0.6570968300000000    0.5730083100000000    0.2189375800000000    F  F  F            Au1
    0.6181452300000000    0.4885334100000000    0.3264712700000000    T  T  T             C1
    0.6588557300000000    0.5736780500000001    0.3754005800000000    T  T  T             C2
    0.5709383700000000    0.3901767200000000    0.3338811100000000    T  T  T             H1
    0.6676964600000000    0.5935640400000000    0.4343729100000000    T  T  T             H2
    0.7159892000000000    0.6887853100000000    0.3276027100000000    T  T  T             H3
    0.7368291700000000    0.7255066400000000    0.2814650700000000    T  T  T             H4

            0           0           0
            0           0           0
            0           0           0
            0           0           0
            0           0           0
            0           0           0
            0           0           0
            0           0           0
            0           0           0
            0           0           0
            0           0           0
            0           0           0
            0           0           0
            0           0           0
            0           0           0
            0           0           0
            0           0           0
            0           0           0
            0           0           0
            0           0           0
            0           0           0
            0           0           0
            0           0           0
            0           0           0
            0           0           0
            0           0           0
            0           0           0
            0           0           0
            0           0           0
            0           0           0
            0           0           0
            0           0           0
            0           0           0
            0           0           0
            0           0           0
            0           0           0
            0           0           0
            0           0           0
            0           0           0
            0           0           0
            0           0           0
            0           0           0
            0           0           0
            0           0           0
            0           0           0
            0           0           0
            0           0           0
            0           0           0
    -0.000152    0.045482    0.159694
     0.001997   -0.347772    0.071033
     0.002849   -0.003821   -0.152209
    -0.006207    0.240352   -0.074289
     0.000554    0.543204   -0.503403
     0.012788    0.426960    0.170216
