Generated by VASPKIT code               
   1.00000000000000     
    12.7690000533999992    0.0000000000000000    0.0000000000000000
    -6.3845000266999996   11.0582784271999994    0.0000000000000000
     0.0000000000000000    0.0000000000000000   18.1282997130999988
   Mo   S    Au   C    H 
    16    31     1     2     6
Direct
  0.0868099107978159  0.1548035438970213  0.1419542469930847
  0.3367609269602630  0.1554876240279353  0.1418475925729674
  0.5869502021048061  0.1556811647907227  0.1417046918972101
  0.8365415643720826  0.1548383446824649  0.1415930458345690
  0.0868949545650919  0.4050625950834633  0.1416443685715746
  0.3382331605085384  0.4062182319704122  0.1425386097860846
  0.5908761105080924  0.4055047303863442  0.1397525335867731
  0.8364133763069164  0.4052241359450072  0.1402073066179000
  0.0858757597082126  0.6546090897801986  0.1417875229030774
  0.3358015681179745  0.6555119321509806  0.1424715968763041
  0.5863306278402955  0.6560711891966965  0.1445863508787807
  0.8353283689883895  0.6502832058044666  0.1401190006279530
  0.0857033619229889  0.9044820600563439  0.1419788019978106
  0.3361536396218185  0.9052833305931354  0.1421996856619991
  0.5860729349961171  0.9058834339064833  0.1423686608503189
  0.8352772186867095  0.9034643515985172  0.1425360470224303
  0.1697560465574467  0.0713683990190220  0.0560105035778042
  0.1698556356713447  0.0716719105888227  0.2279120178601630
  0.4195170367947393  0.0717373520862079  0.0561270860789609
  0.4201577912000102  0.0725966029269249  0.2277280865776237
  0.6694215407607331  0.0713764224727961  0.0559119195925446
  0.6703941201393518  0.0732552542605331  0.2278526138337061
  0.9195246428039824  0.0703093130789742  0.0563162323398814
  0.9200874689011252  0.0715383051765478  0.2277276417856130
  0.1713836541448510  0.3220543368988874  0.0563340518997028
  0.1702833113465453  0.3216060313834260  0.2277731580137573
  0.4214206065102605  0.3227671440748106  0.0556214504912478
  0.4247043843176032  0.3246079691692750  0.2264503569015670
  0.6689755825881485  0.3206479703231882  0.0539748038045069
  0.6729276532781936  0.3255559857310972  0.2274619589698134
  0.9207265129709661  0.3210319495326714  0.0552384428373035
  0.9197918094075661  0.3219794445703375  0.2268177706778094
  0.1702215592846613  0.5720292012858277  0.0559889557373046
  0.1684888955321408  0.5712092615116958  0.2279198687673127
  0.4214437598946297  0.5730773456128772  0.0574933878808468
  0.4164552353569282  0.5709532065161234  0.2289119902019970
  0.6682565558864526  0.5730345834496573  0.0578703883483781
  0.9206953832287715  0.5726360887525082  0.0541250937987144
  0.9162306562192279  0.5688275872915874  0.2274142354567587
  0.1694080993492393  0.8217170702719021  0.0562009025529939
  0.1690100273539702  0.8214748395045232  0.2278193314774074
  0.4194877733584788  0.8218460268759747  0.0564152144414150
  0.4192855200806351  0.8225267918869027  0.2284168949595292
  0.6684832025610817  0.8203115221099569  0.0573886754855826
  0.6709772946259117  0.8258961717066000  0.2289309362912570
  0.9183584102947245  0.8196854004687133  0.0557831506589518
  0.9164464165335420  0.8165710141082186  0.2266393673837885
  0.6831559532397062  0.5546848442279375  0.2682738350179541
  0.6654622373031804  0.5635297924851681  0.3843329677671073
  0.6515663408190906  0.6688314149379295  0.4112441792516352
  0.5863820120241200  0.4758134178646757  0.3990185998727452
  0.7464122561583766  0.5662065802801808  0.4078103915278654
  0.7319817439147431  0.7565211119455906  0.3986548134586648
  0.6378564454006802  0.6648381183985427  0.4715442350722683
  0.5733509160601625  0.6689642948473511  0.3857479166300394
  0.6160265484662192  0.6331552077149135  0.2469316231171021
 
  0.00000000E+00  0.00000000E+00  0.00000000E+00
  0.00000000E+00  0.00000000E+00  0.00000000E+00
  0.00000000E+00  0.00000000E+00  0.00000000E+00
  0.00000000E+00  0.00000000E+00  0.00000000E+00
  0.00000000E+00  0.00000000E+00  0.00000000E+00
  0.00000000E+00  0.00000000E+00  0.00000000E+00
  0.00000000E+00  0.00000000E+00  0.00000000E+00
  0.00000000E+00  0.00000000E+00  0.00000000E+00
  0.00000000E+00  0.00000000E+00  0.00000000E+00
  0.00000000E+00  0.00000000E+00  0.00000000E+00
  0.00000000E+00  0.00000000E+00  0.00000000E+00
  0.00000000E+00  0.00000000E+00  0.00000000E+00
  0.00000000E+00  0.00000000E+00  0.00000000E+00
  0.00000000E+00  0.00000000E+00  0.00000000E+00
  0.00000000E+00  0.00000000E+00  0.00000000E+00
  0.00000000E+00  0.00000000E+00  0.00000000E+00
  0.00000000E+00  0.00000000E+00  0.00000000E+00
  0.00000000E+00  0.00000000E+00  0.00000000E+00
  0.00000000E+00  0.00000000E+00  0.00000000E+00
  0.00000000E+00  0.00000000E+00  0.00000000E+00
  0.00000000E+00  0.00000000E+00  0.00000000E+00
  0.00000000E+00  0.00000000E+00  0.00000000E+00
  0.00000000E+00  0.00000000E+00  0.00000000E+00
  0.00000000E+00  0.00000000E+00  0.00000000E+00
  0.00000000E+00  0.00000000E+00  0.00000000E+00
  0.00000000E+00  0.00000000E+00  0.00000000E+00
  0.00000000E+00  0.00000000E+00  0.00000000E+00
  0.00000000E+00  0.00000000E+00  0.00000000E+00
  0.00000000E+00  0.00000000E+00  0.00000000E+00
  0.00000000E+00  0.00000000E+00  0.00000000E+00
  0.00000000E+00  0.00000000E+00  0.00000000E+00
  0.00000000E+00  0.00000000E+00  0.00000000E+00
  0.00000000E+00  0.00000000E+00  0.00000000E+00
  0.00000000E+00  0.00000000E+00  0.00000000E+00
  0.00000000E+00  0.00000000E+00  0.00000000E+00
  0.00000000E+00  0.00000000E+00  0.00000000E+00
  0.00000000E+00  0.00000000E+00  0.00000000E+00
  0.00000000E+00  0.00000000E+00  0.00000000E+00
  0.00000000E+00  0.00000000E+00  0.00000000E+00
  0.00000000E+00  0.00000000E+00  0.00000000E+00
  0.00000000E+00  0.00000000E+00  0.00000000E+00
  0.00000000E+00  0.00000000E+00  0.00000000E+00
  0.00000000E+00  0.00000000E+00  0.00000000E+00
  0.00000000E+00  0.00000000E+00  0.00000000E+00
  0.00000000E+00  0.00000000E+00  0.00000000E+00
  0.00000000E+00  0.00000000E+00  0.00000000E+00
  0.00000000E+00  0.00000000E+00  0.00000000E+00
  0.00000000E+00  0.00000000E+00  0.00000000E+00
  0.00000000E+00  0.00000000E+00  0.00000000E+00
  0.00000000E+00  0.00000000E+00  0.00000000E+00
  0.00000000E+00  0.00000000E+00  0.00000000E+00
  0.00000000E+00  0.00000000E+00  0.00000000E+00
  0.00000000E+00  0.00000000E+00  0.00000000E+00
  0.00000000E+00  0.00000000E+00  0.00000000E+00
  0.00000000E+00  0.00000000E+00  0.00000000E+00
  0.00000000E+00  0.00000000E+00  0.00000000E+00
