POSCAR1Pd_                              
   1.00000000000000     
    12.7690000533999992    0.0000000000000000    0.0000000000000000
    -6.3845000266999996   11.0582784271999994    0.0000000000000000
     0.0000000000000000    0.0000000000000000   18.1282997130999988
   Mo   S    Au   C    H 
    16    31     1     2     4
Direct
  0.0853617386307884  0.1646627449982581  0.1396228366519803
  0.3358419638810996  0.1654841702860942  0.1398065492060021
  0.5858261741873855  0.1658639424426141  0.1399973337597291
  0.8351628144986674  0.1647331087270977  0.1398812478067730
  0.0854814897264124  0.4149557136704112  0.1396601361407998
  0.3361673942578354  0.4151521268480719  0.1384994046311544
  0.5830385949511088  0.4169553988606713  0.1389246593903570
  0.8353993142780879  0.4160867470490636  0.1404103178768159
  0.0870042904854811  0.6652945750256528  0.1401650159417780
  0.3358790709251892  0.6644792411003195  0.1397410189207518
  0.5821806404149514  0.6616843915753515  0.1375854797522141
  0.8371878090598649  0.6641734316048521  0.1416828522945257
  0.0865060364076625  0.9154184073876493  0.1400578841438157
  0.3362006581006228  0.9152993295106032  0.1399771583349637
  0.5857915864824480  0.9147576678880354  0.1396401632200646
  0.8350767742007530  0.9133835364574180  0.1401644350472387
  0.1690878007336826  0.0815230290594275  0.0538710819979146
  0.1693906840802739  0.0824162724692235  0.2257463486509402
  0.4194367067958024  0.0821293044175815  0.0541168062775486
  0.4193336056167060  0.0822114429782751  0.2257829077239243
  0.6687035675717188  0.0819304775222535  0.0539727051572421
  0.6688821686404199  0.0816184991028322  0.2257548452636938
  0.9180463399088782  0.0805134520457288  0.0541792806081834
  0.9184384067153852  0.0811272886061838  0.2255849124657597
  0.1678143465922189  0.3309830510212895  0.0534721076676156
  0.1692786927034053  0.3316650431395268  0.2249655488511173
  0.4198267600252529  0.3313221610212788  0.0526681783038365
  0.4194828784013332  0.3345530862434820  0.2254680187241353
  0.6681374251773313  0.3332901022514503  0.0540276628247088
  0.6676442463799098  0.3347743138953045  0.2248951083805295
  0.9180478397334368  0.3318616791418373  0.0542424882756545
  0.9185272097042512  0.3313044534822834  0.2257043526529377
  0.1692398129241678  0.5818401136945466  0.0538764249590966
  0.1699487767738464  0.5811636017483663  0.2258730274372431
  0.4185802437434268  0.5822439883985724  0.0520863084929642
  0.4205510648339749  0.5790351237471808  0.2255993585578209
  0.6716727843461487  0.5831629635785398  0.0557866526871022
  0.9193659359521095  0.5825988761020602  0.0548458469402497
  0.9224499585224997  0.5802633913799962  0.2269860950714249
  0.1695315381507664  0.8319804675186061  0.0541132119666330
  0.1702220405564539  0.8323284572059784  0.2260767781974181
  0.4191076187831781  0.8316196739688559  0.0540100535580465
  0.4194556693893333  0.8314725866622285  0.2255986288384358
  0.6686574767106753  0.8306155253390946  0.0532410464247572
  0.6673732362069937  0.8274144706178420  0.2243080580477921
  0.9187153885058895  0.8302467894564179  0.0548440604278812
  0.9206154158885109  0.8335877735216207  0.2260752584171700
  0.6407771926927930  0.5730314747308447  0.2663552603043541
  0.5857315580949545  0.5401734129333005  0.4305421670351592
  0.6723400605672774  0.5866672847512701  0.3788560416266952
  0.6081137538831477  0.5505656175123336  0.4895267789052187
  0.7671222043751533  0.6354335547867445  0.3967549745837234
  0.4893532191015104  0.4900024263282109  0.4171521250466381
  0.7832063007291764  0.6192021061879720  0.2424004555294906
 
  0.00000000E+00  0.00000000E+00  0.00000000E+00
  0.00000000E+00  0.00000000E+00  0.00000000E+00
  0.00000000E+00  0.00000000E+00  0.00000000E+00
  0.00000000E+00  0.00000000E+00  0.00000000E+00
  0.00000000E+00  0.00000000E+00  0.00000000E+00
  0.00000000E+00  0.00000000E+00  0.00000000E+00
  0.00000000E+00  0.00000000E+00  0.00000000E+00
  0.00000000E+00  0.00000000E+00  0.00000000E+00
  0.00000000E+00  0.00000000E+00  0.00000000E+00
  0.00000000E+00  0.00000000E+00  0.00000000E+00
  0.00000000E+00  0.00000000E+00  0.00000000E+00
  0.00000000E+00  0.00000000E+00  0.00000000E+00
  0.00000000E+00  0.00000000E+00  0.00000000E+00
  0.00000000E+00  0.00000000E+00  0.00000000E+00
  0.00000000E+00  0.00000000E+00  0.00000000E+00
  0.00000000E+00  0.00000000E+00  0.00000000E+00
  0.00000000E+00  0.00000000E+00  0.00000000E+00
  0.00000000E+00  0.00000000E+00  0.00000000E+00
  0.00000000E+00  0.00000000E+00  0.00000000E+00
  0.00000000E+00  0.00000000E+00  0.00000000E+00
  0.00000000E+00  0.00000000E+00  0.00000000E+00
  0.00000000E+00  0.00000000E+00  0.00000000E+00
  0.00000000E+00  0.00000000E+00  0.00000000E+00
  0.00000000E+00  0.00000000E+00  0.00000000E+00
  0.00000000E+00  0.00000000E+00  0.00000000E+00
  0.00000000E+00  0.00000000E+00  0.00000000E+00
  0.00000000E+00  0.00000000E+00  0.00000000E+00
  0.00000000E+00  0.00000000E+00  0.00000000E+00
  0.00000000E+00  0.00000000E+00  0.00000000E+00
  0.00000000E+00  0.00000000E+00  0.00000000E+00
  0.00000000E+00  0.00000000E+00  0.00000000E+00
  0.00000000E+00  0.00000000E+00  0.00000000E+00
  0.00000000E+00  0.00000000E+00  0.00000000E+00
  0.00000000E+00  0.00000000E+00  0.00000000E+00
  0.00000000E+00  0.00000000E+00  0.00000000E+00
  0.00000000E+00  0.00000000E+00  0.00000000E+00
  0.00000000E+00  0.00000000E+00  0.00000000E+00
  0.00000000E+00  0.00000000E+00  0.00000000E+00
  0.00000000E+00  0.00000000E+00  0.00000000E+00
  0.00000000E+00  0.00000000E+00  0.00000000E+00
  0.00000000E+00  0.00000000E+00  0.00000000E+00
  0.00000000E+00  0.00000000E+00  0.00000000E+00
  0.00000000E+00  0.00000000E+00  0.00000000E+00
  0.00000000E+00  0.00000000E+00  0.00000000E+00
  0.00000000E+00  0.00000000E+00  0.00000000E+00
  0.00000000E+00  0.00000000E+00  0.00000000E+00
  0.00000000E+00  0.00000000E+00  0.00000000E+00
  0.00000000E+00  0.00000000E+00  0.00000000E+00
  0.00000000E+00  0.00000000E+00  0.00000000E+00
  0.00000000E+00  0.00000000E+00  0.00000000E+00
  0.00000000E+00  0.00000000E+00  0.00000000E+00
  0.00000000E+00  0.00000000E+00  0.00000000E+00
  0.00000000E+00  0.00000000E+00  0.00000000E+00
  0.00000000E+00  0.00000000E+00  0.00000000E+00
