POSCARMoS21PdDoped                      
   1.00000000000000     
    12.7690000533999992    0.0000000000000000    0.0000000000000000
    -6.3845000266999996   11.0582784271999994    0.0000000000000000
     0.0000000000000000    0.0000000000000000   18.1282997130999988
   Mo   S    Au   C    H 
    16    31     1     2     2
Direct
  0.0810346101977776  0.1644011196203003  0.1398950750305782
  0.3303770995028980  0.1637976614386216  0.1395655627289527
  0.5807166749801503  0.1638488157692345  0.1396695976380782
  0.8306671429388961  0.1644652730076293  0.1399748883239845
  0.0809447818139856  0.4145141396827049  0.1402242507619210
  0.3323926526838214  0.4145272716388407  0.1397420209259485
  0.5793312644372547  0.4116512199712338  0.1376160843064838
  0.8295759116616717  0.4146657063173454  0.1398961859840225
  0.0804156844497202  0.6643063000955811  0.1404547124188377
  0.3313115658989761  0.6642353286545785  0.1404806911570011
  0.5840498898957922  0.6662432270972619  0.1397957634126804
  0.8299449470608217  0.6666471981688132  0.1396743477147932
  0.0804139001000255  0.9142437673583699  0.1402672875118378
  0.3306543436368653  0.9139620430767523  0.1403867762022568
  0.5811181343759714  0.9141554985842270  0.1403776885208046
  0.8305084412312177  0.9136460118190862  0.1396340590773172
  0.1636078059985635  0.0803717724830138  0.0539558493238329
  0.1641530775521472  0.0812152047183987  0.2259112365419620
  0.4137305052045944  0.0800594717381841  0.0540780784767347
  0.4141201293635852  0.0810572147716559  0.2257764631710557
  0.6639890558191380  0.0803678412321550  0.0540956887254854
  0.6643289822406886  0.0811829061409255  0.2260007267573920
  0.9141874730153106  0.0812778515622455  0.0540508688031246
  0.9141319959242958  0.0810022295484464  0.2255602988060396
  0.1647539681317584  0.3315860967595055  0.0542772666821157
  0.1650974256775452  0.3313222958919708  0.2256391006091802
  0.4135389695972619  0.3298275752214553  0.0528304814848045
  0.4160038398950948  0.3318579759743709  0.2250268165160161
  0.6637953342318759  0.3299598980182851  0.0529867581769692
  0.6630756670438307  0.3319689169943141  0.2251116922661317
  0.9141167031648331  0.3316806521209107  0.0543661291590125
  0.9136925234072014  0.3314596807665476  0.2257351506188435
  0.1644236312636402  0.5814160017960056  0.0545740965874907
  0.1640458058160238  0.5806713822544013  0.2262918507348464
  0.4162441458655153  0.5822680222304358  0.0541799127156351
  0.4172805376916220  0.5811955728106398  0.2252910282075381
  0.6640842229264845  0.5806627338464047  0.0553027694127270
  0.9135100099457191  0.5821806120815282  0.0541967679712925
  0.9115290964577063  0.5815237993435209  0.2253070590918978
  0.1638602152992534  0.8306123311647615  0.0546214637876679
  0.1638643211478368  0.8308986045493248  0.2263060623650474
  0.4141640444457708  0.8305815707676247  0.0546761281153985
  0.4142529646137625  0.8308080989853296  0.2263502563633997
  0.6631360852554512  0.8301050693746835  0.0536292424104789
  0.6657873331199231  0.8305406737926169  0.2261899529162890
  0.9143440358089920  0.8302791579648180  0.0535140812623296
  0.9123202014258116  0.8307497966706666  0.2262107790970155
  0.6650890485278513  0.5827482229770509  0.2561890703677229
  0.6244803554254542  0.5051648134672042  0.3716159551497918
  0.6839070171197797  0.6164383314213513  0.3789733486325829
  0.5729105131742924  0.4084942140733954  0.3786803150993079
  0.7325758068909872  0.7074065169540443  0.4000903081065361
 
  0.00000000E+00  0.00000000E+00  0.00000000E+00
  0.00000000E+00  0.00000000E+00  0.00000000E+00
  0.00000000E+00  0.00000000E+00  0.00000000E+00
  0.00000000E+00  0.00000000E+00  0.00000000E+00
  0.00000000E+00  0.00000000E+00  0.00000000E+00
  0.00000000E+00  0.00000000E+00  0.00000000E+00
  0.00000000E+00  0.00000000E+00  0.00000000E+00
  0.00000000E+00  0.00000000E+00  0.00000000E+00
  0.00000000E+00  0.00000000E+00  0.00000000E+00
  0.00000000E+00  0.00000000E+00  0.00000000E+00
  0.00000000E+00  0.00000000E+00  0.00000000E+00
  0.00000000E+00  0.00000000E+00  0.00000000E+00
  0.00000000E+00  0.00000000E+00  0.00000000E+00
  0.00000000E+00  0.00000000E+00  0.00000000E+00
  0.00000000E+00  0.00000000E+00  0.00000000E+00
  0.00000000E+00  0.00000000E+00  0.00000000E+00
  0.00000000E+00  0.00000000E+00  0.00000000E+00
  0.00000000E+00  0.00000000E+00  0.00000000E+00
  0.00000000E+00  0.00000000E+00  0.00000000E+00
  0.00000000E+00  0.00000000E+00  0.00000000E+00
  0.00000000E+00  0.00000000E+00  0.00000000E+00
  0.00000000E+00  0.00000000E+00  0.00000000E+00
  0.00000000E+00  0.00000000E+00  0.00000000E+00
  0.00000000E+00  0.00000000E+00  0.00000000E+00
  0.00000000E+00  0.00000000E+00  0.00000000E+00
  0.00000000E+00  0.00000000E+00  0.00000000E+00
  0.00000000E+00  0.00000000E+00  0.00000000E+00
  0.00000000E+00  0.00000000E+00  0.00000000E+00
  0.00000000E+00  0.00000000E+00  0.00000000E+00
  0.00000000E+00  0.00000000E+00  0.00000000E+00
  0.00000000E+00  0.00000000E+00  0.00000000E+00
  0.00000000E+00  0.00000000E+00  0.00000000E+00
  0.00000000E+00  0.00000000E+00  0.00000000E+00
  0.00000000E+00  0.00000000E+00  0.00000000E+00
  0.00000000E+00  0.00000000E+00  0.00000000E+00
  0.00000000E+00  0.00000000E+00  0.00000000E+00
  0.00000000E+00  0.00000000E+00  0.00000000E+00
  0.00000000E+00  0.00000000E+00  0.00000000E+00
  0.00000000E+00  0.00000000E+00  0.00000000E+00
  0.00000000E+00  0.00000000E+00  0.00000000E+00
  0.00000000E+00  0.00000000E+00  0.00000000E+00
  0.00000000E+00  0.00000000E+00  0.00000000E+00
  0.00000000E+00  0.00000000E+00  0.00000000E+00
  0.00000000E+00  0.00000000E+00  0.00000000E+00
  0.00000000E+00  0.00000000E+00  0.00000000E+00
  0.00000000E+00  0.00000000E+00  0.00000000E+00
  0.00000000E+00  0.00000000E+00  0.00000000E+00
  0.00000000E+00  0.00000000E+00  0.00000000E+00
  0.00000000E+00  0.00000000E+00  0.00000000E+00
  0.00000000E+00  0.00000000E+00  0.00000000E+00
  0.00000000E+00  0.00000000E+00  0.00000000E+00
  0.00000000E+00  0.00000000E+00  0.00000000E+00
