Generated by VASPKIT code               
   1.00000000000000     
    12.7690000533999992    0.0000000000000000    0.0000000000000000
    -6.3845000266999996   11.0582784271999994    0.0000000000000000
     0.0000000000000000    0.0000000000000000   18.1282997130999988
   Mo   S    Au   C    H 
    16    31     1     2     6
Direct
  0.0808456607704535  0.1694118221959016  0.1404238625648657
  0.3308727821587162  0.1700713470989593  0.1405406626092066
  0.5814784868085174  0.1698010492576744  0.1402368210911140
  0.8311279573727940  0.1695156957891091  0.1403272556863981
  0.0811816291055559  0.4195372957485877  0.1393161953140571
  0.3308284437136226  0.4193834123815225  0.1414874212438512
  0.5806217244784612  0.4169557346513520  0.1405246280176104
  0.8312991780276345  0.4197525786416547  0.1403229589013834
  0.0822574283704581  0.6702852847904036  0.1384233697773098
  0.3300420125461447  0.6712382631263377  0.1389567464367754
  0.5808589089269434  0.6719787498526421  0.1449372000000710
  0.8340317484167090  0.6708671188748954  0.1433977654968828
  0.0812735660459180  0.9203018726964789  0.1405473299358948
  0.3312504023529120  0.9207014083231744  0.1395300661168115
  0.5808806015595492  0.9201042540869651  0.1408112891284560
  0.8304164815438951  0.9189589171147217  0.1421305680907128
  0.1643236806886311  0.0865591311266825  0.0544693012792836
  0.1643727880322896  0.0866569326538178  0.2265530927591864
  0.4148558619871933  0.0879290698957904  0.0542105075929611
  0.4144510298438110  0.0864560581650192  0.2259131337585688
  0.6645158188767704  0.0859856240272649  0.0544199766364745
  0.6647375175241349  0.0871003154889526  0.2263981875361106
  0.9134320223780349  0.0844305121114438  0.0550332380079564
  0.9148426352284201  0.0873023046562004  0.2267535165428946
  0.1654827012753996  0.3360915656798155  0.0543966168573750
  0.1629141085055529  0.3356864343182111  0.2262040145576145
  0.4153922683271114  0.3373332958845550  0.0550266863879074
  0.4151870756079005  0.3365498391083694  0.2269360210169143
  0.6640117401762990  0.3366008401231683  0.0543940911420144
  0.6652463734536993  0.3365538488136213  0.2265372247407629
  0.9138235541271169  0.3358553226966032  0.0540196683202410
  0.9152633825336659  0.3366259348754210  0.2257723771625127
  0.1645817950046772  0.5860237788969058  0.0525009841319017
  0.1636191022086205  0.5866791107853068  0.2247275176202132
  0.4170933747902021  0.5872089495270434  0.0563212326238755
  0.4043050428633135  0.5851967543914700  0.2273989492660697
  0.6646925105995682  0.5875861772620994  0.0610528708890828
  0.9130090883063117  0.5869087672865576  0.0544492082200973
  0.9195926343543319  0.5865204357764436  0.2254137618376808
  0.1645019638007586  0.8380731805876208  0.0534837575418027
  0.1649695258987004  0.8362571766514583  0.2253371193882096
  0.4156264012657195  0.8380857128242689  0.0536098558838778
  0.4131986803391884  0.8372029468722008  0.2256681425555439
  0.6630043413225971  0.8331158495415666  0.0567339421040213
  0.6650066384578071  0.8395140215512763  0.2288183801990423
  0.9129216874025309  0.8346725886032030  0.0559272786175010
  0.9156323605699874  0.8374737107623859  0.2280538599491785
  0.6723403080491157  0.5919583827000607  0.2584899801495679
  0.7638537062424897  0.5784995196659863  0.3651688820672493
  0.6579017005155062  0.5748457193945321  0.3927738476395655
  0.7668291071396867  0.4949687494729280  0.3603055569830611
  0.8502804028886652  0.6626620214664346  0.3672203963271726
  0.6667831085851519  0.6555379441001380  0.4197896096320747
  0.5839413265498431  0.4883383110080874  0.4126703126401114
  0.5382077812082903  0.5918651187674213  0.2724879124672132
  0.5766969656097454  0.5796454516134043  0.3346844713645844
 
  0.71105877E-03  0.11266396E-04  0.33683263E-03
 -0.10132574E-02  0.50792987E-03 -0.18171160E-02
  0.11176978E-02  0.10825142E-02  0.17045731E-02
 -0.11650779E-02 -0.39890701E-03  0.75946178E-03
 -0.80202392E-03 -0.55039024E-03 -0.24559948E-03
 -0.13253852E-02  0.29014447E-02 -0.30537713E-02
  0.11157783E-01 -0.50672659E-02 -0.81968521E-02
 -0.16106579E-02 -0.28921399E-02 -0.21598007E-02
 -0.20204617E-02 -0.46854635E-03  0.16338068E-02
 -0.10110791E-01 -0.17648660E-02 -0.98721554E-02
  0.23987754E-01  0.22150238E-01 -0.44309691E-01
  0.71861067E-02  0.33699458E-02 -0.14290626E-01
 -0.30053772E-03  0.65078903E-03 -0.14830850E-04
  0.63957884E-03  0.10727412E-02 -0.67063180E-03
  0.18453580E-02 -0.28998213E-03  0.31003755E-02
 -0.73954320E-02 -0.54856792E-02 -0.28501143E-02
 -0.94949001E-04  0.19207324E-03 -0.14631570E-03
  0.73168139E-03  0.36952483E-03 -0.40740277E-04
  0.20887770E-03  0.26642055E-03  0.18708591E-03
 -0.20397210E-03  0.12668126E-03  0.15002747E-03
 -0.12896636E-02 -0.38060895E-03  0.94266092E-03
 -0.54676275E-03 -0.26649660E-03  0.79064073E-03
  0.99190790E-04  0.33761718E-03  0.67454248E-03
 -0.52083833E-03 -0.19514149E-02 -0.11444500E-02
  0.12438580E-02 -0.37704257E-03  0.26738736E-03
  0.13389838E-02  0.33548686E-02  0.45569665E-03
 -0.44042698E-02 -0.99407302E-03 -0.32173599E-02
  0.36826471E-02  0.10014862E-02 -0.48765411E-02
  0.47355519E-02 -0.20039439E-02 -0.38054099E-02
  0.10796619E-02  0.43871127E-02  0.27797939E-02
  0.45717438E-03 -0.90422033E-03  0.27711801E-03
  0.11940158E-02 -0.15406748E-03 -0.68800485E-03
 -0.57106190E-02 -0.28554165E-02 -0.33010075E-02
 -0.58723339E-03 -0.15139430E-03 -0.66536847E-03
 -0.15627303E-02  0.21757483E-02 -0.10923889E-01
 -0.79595546E-02  0.33962091E-01 -0.58269780E-01
  0.78521848E-02 -0.30618333E-02 -0.17692854E-01
  0.44291400E-02 -0.22797260E-02 -0.55065949E-02
 -0.14125454E-01  0.41716398E-02 -0.71593534E-02
 -0.20692803E-03 -0.73364943E-04  0.99009889E-03
  0.11650600E-02  0.98156008E-03  0.31325728E-04
 -0.72615641E-03  0.18341430E-02 -0.17328168E-02
 -0.25382416E-03 -0.43956850E-02 -0.27935436E-02
 -0.67977253E-02  0.56558748E-02 -0.95119018E-02
  0.86248189E-02 -0.14228440E-01  0.49744418E-03
  0.18610061E-02  0.16870446E-02 -0.59104957E-02
 -0.45470946E-02 -0.70237957E-02 -0.33227378E-02
 -0.15036881E-02  0.13464652E-01 -0.78395153E-01
  0.69359380E-01 -0.10265373E-01  0.22251108E+00
  0.30008132E+00 -0.99223130E-02  0.24580102E+00
  0.22925755E-01 -0.13137489E-01 -0.33249561E-01
  0.24148672E-01  0.15723297E-01 -0.30142413E-01
 -0.56108148E-02  0.16500159E-01 -0.61722284E-01
 -0.12660338E-01 -0.85792340E-03 -0.73996942E-01
  0.20858501E-01 -0.82789424E-01  0.54616058E+00
 -0.42811403E+00  0.37043165E-01 -0.52440360E+00
