POSCARMoS21PdDoped                      
   1.00000000000000     
    12.7690000533999992    0.0000000000000000    0.0000000000000000
    -6.3845000266999996   11.0582784271999994    0.0000000000000000
     0.0000000000000000    0.0000000000000000   18.1282997130999988
   Mo   S    Au
    16    31     1
Direct
  0.0815088187861883  0.1650755255801943  0.1406551701757181
  0.3311089030388949  0.1650706690255981  0.1408607939513280
  0.5815913950515911  0.1650673340563522  0.1408465748942582
  0.8311911265877350  0.1650433648941852  0.1406695269084605
  0.0815186492367572  0.4153515430833718  0.1406470562884574
  0.3327961413545490  0.4158460042861958  0.1405842624532894
  0.5796144015214120  0.4115115730681235  0.1399968837498121
  0.8307156719872760  0.4158090745693625  0.1405692482523673
  0.0815303306343672  0.6649417371999550  0.1408252754279702
  0.3311100589114404  0.6649433813016532  0.1408430462331311
  0.5795660920354543  0.6669681443978119  0.1399560202120147
  0.8352226939218873  0.6670384945928394  0.1398687075514470
  0.0815298191222221  0.9154904375195435  0.1408112468538624
  0.3313907564469750  0.9151504705374655  0.1409468607555051
  0.5815920885721498  0.9154457161840719  0.1408499686789330
  0.8307329869174637  0.9137747661523810  0.1405631561922856
  0.1648866729333417  0.0817930643538911  0.0547669888560479
  0.1645325765828410  0.0819523441349578  0.2267861350130524
  0.4147092635679610  0.0817957639878572  0.0550689084820813
  0.4146425498150584  0.0817008729474720  0.2267383885468234
  0.6645083353310814  0.0817282514431542  0.0547866952293868
  0.6649838929139248  0.0819569625393273  0.2267896575070937
  0.9144968054471643  0.0813832465863751  0.0549278948562663
  0.9144877832269599  0.0813290607067840  0.2262733014414988
  0.1652661039146328  0.3321004227167225  0.0549324861542296
  0.1651805122971293  0.3320375117744460  0.2262788134598273
  0.4149754469288736  0.3312395351810600  0.0541631157176299
  0.4152046904152159  0.3324759341906682  0.2266478226362380
  0.6639541241331094  0.3312411083643162  0.0541181823535309
  0.6648835334664527  0.3324539715516463  0.2266466305731673
  0.9144981658210855  0.3320421822337410  0.0549318362571840
  0.9145055371319192  0.3320033460317384  0.2262685824398204
  0.1648951553735308  0.5820642905210396  0.0547592700544134
  0.1645403955811577  0.5814688758556501  0.2267741529497835
  0.4149079872974769  0.5826048219494964  0.0541335684143626
  0.4152308004257378  0.5816303274886589  0.2266268059511364
  0.6648071890995755  0.5818592207014570  0.0580123913745579
  0.9154692074765909  0.5825701077936524  0.0540964756384319
  0.9140540612994056  0.5816347306145481  0.2265920932600362
  0.1648274428187356  0.8318859844864612  0.0550520731241226
  0.1647330141435659  0.8318106239034905  0.2267207550153904
  0.4147253422387996  0.8318759857425456  0.0550640763575537
  0.4146327464825508  0.8318154087885868  0.2267382824569619
  0.6639661221624839  0.8316689029336504  0.0541302835648540
  0.6648342577514007  0.8312301357799361  0.2266257207534384
  0.9154402129650737  0.8317389610270665  0.0540708232202477
  0.9140914470019655  0.8312708666889228  0.2265755745633298
  0.6650667007987254  0.5820053173565622  0.2497306769922659
 
  0.00000000E+00  0.00000000E+00  0.00000000E+00
  0.00000000E+00  0.00000000E+00  0.00000000E+00
  0.00000000E+00  0.00000000E+00  0.00000000E+00
  0.00000000E+00  0.00000000E+00  0.00000000E+00
  0.00000000E+00  0.00000000E+00  0.00000000E+00
  0.00000000E+00  0.00000000E+00  0.00000000E+00
  0.00000000E+00  0.00000000E+00  0.00000000E+00
  0.00000000E+00  0.00000000E+00  0.00000000E+00
  0.00000000E+00  0.00000000E+00  0.00000000E+00
  0.00000000E+00  0.00000000E+00  0.00000000E+00
  0.00000000E+00  0.00000000E+00  0.00000000E+00
  0.00000000E+00  0.00000000E+00  0.00000000E+00
  0.00000000E+00  0.00000000E+00  0.00000000E+00
  0.00000000E+00  0.00000000E+00  0.00000000E+00
  0.00000000E+00  0.00000000E+00  0.00000000E+00
  0.00000000E+00  0.00000000E+00  0.00000000E+00
  0.00000000E+00  0.00000000E+00  0.00000000E+00
  0.00000000E+00  0.00000000E+00  0.00000000E+00
  0.00000000E+00  0.00000000E+00  0.00000000E+00
  0.00000000E+00  0.00000000E+00  0.00000000E+00
  0.00000000E+00  0.00000000E+00  0.00000000E+00
  0.00000000E+00  0.00000000E+00  0.00000000E+00
  0.00000000E+00  0.00000000E+00  0.00000000E+00
  0.00000000E+00  0.00000000E+00  0.00000000E+00
  0.00000000E+00  0.00000000E+00  0.00000000E+00
  0.00000000E+00  0.00000000E+00  0.00000000E+00
  0.00000000E+00  0.00000000E+00  0.00000000E+00
  0.00000000E+00  0.00000000E+00  0.00000000E+00
  0.00000000E+00  0.00000000E+00  0.00000000E+00
  0.00000000E+00  0.00000000E+00  0.00000000E+00
  0.00000000E+00  0.00000000E+00  0.00000000E+00
  0.00000000E+00  0.00000000E+00  0.00000000E+00
  0.00000000E+00  0.00000000E+00  0.00000000E+00
  0.00000000E+00  0.00000000E+00  0.00000000E+00
  0.00000000E+00  0.00000000E+00  0.00000000E+00
  0.00000000E+00  0.00000000E+00  0.00000000E+00
  0.00000000E+00  0.00000000E+00  0.00000000E+00
  0.00000000E+00  0.00000000E+00  0.00000000E+00
  0.00000000E+00  0.00000000E+00  0.00000000E+00
  0.00000000E+00  0.00000000E+00  0.00000000E+00
  0.00000000E+00  0.00000000E+00  0.00000000E+00
  0.00000000E+00  0.00000000E+00  0.00000000E+00
  0.00000000E+00  0.00000000E+00  0.00000000E+00
  0.00000000E+00  0.00000000E+00  0.00000000E+00
  0.00000000E+00  0.00000000E+00  0.00000000E+00
  0.00000000E+00  0.00000000E+00  0.00000000E+00
  0.00000000E+00  0.00000000E+00  0.00000000E+00
  0.00000000E+00  0.00000000E+00  0.00000000E+00
