POSCARMoS21PdDoped                      
   1.00000000000000     
    12.7690000533999992    0.0000000000000000    0.0000000000000000
    -6.3845000266999996   11.0582784271999994    0.0000000000000000
     0.0000000000000000    0.0000000000000000   18.1282997130999988
   Mo   S    Ir
    16    31     1
Direct
  0.0814808128334902  0.1650778397745558  0.1412409304268843
  0.3312433384032544  0.1652310299565466  0.1415945887603973
  0.5815728467666788  0.1651908970152326  0.1416449606069345
  0.8311842586031413  0.1649977852063668  0.1412783156677186
  0.0814053785846634  0.4152455065025419  0.1412458998051190
  0.3315648386126011  0.4152952926607426  0.1407811854624617
  0.5807106024267921  0.4137582204610060  0.1397610545734544
  0.8313301901914938  0.4152633745462856  0.1407870010049234
  0.0814446196385404  0.6649932461742810  0.1411935992933113
  0.3312275007353356  0.6649369357138901  0.1412458527150597
  0.5807333562132728  0.6659286905307090  0.1395081435268544
  0.8330358410377795  0.6659381267643322  0.1394541817264552
  0.0814496599748738  0.9153329361765390  0.1412061322774500
  0.3314197277424364  0.9151826353066744  0.1417320092881371
  0.5815387234178327  0.9152110406603051  0.1412801588125247
  0.8314064846540046  0.9150103147056355  0.1404200189832026
  0.1650914456575901  0.0819069935585286  0.0554786248678184
  0.1644011467619444  0.0816297132503293  0.2273964033249794
  0.4148183760689397  0.0819375074213526  0.0559280231143094
  0.4146953826854963  0.0819228934545836  0.2276680780376359
  0.6643476282647701  0.0817640710458996  0.0555615486511785
  0.6647448008436722  0.0815310663887753  0.2274373039120112
  0.9150335034314909  0.0824200767434042  0.0550696300786077
  0.9145092503878586  0.0813032925022000  0.2267651680986618
  0.1644377496178537  0.3316965242354697  0.0552139459498494
  0.1648676781318681  0.3319005128165406  0.2269051281058131
  0.4139308753115546  0.3307311821562161  0.0544501135061132
  0.4169585732943283  0.3346719576289330  0.2267179993913896
  0.6644157119250144  0.3306825780917850  0.0544699976728238
  0.6652739524172049  0.3346239659786082  0.2267698961358101
  0.9147782060399084  0.3316023723042062  0.0552378879578244
  0.9145176771724397  0.3318604689516783  0.2269172188185511
  0.1648456865071379  0.5819347060068675  0.0553255399631533
  0.1646416238316434  0.5817297981460129  0.2272196610619936
  0.4139766160791629  0.5819912244065119  0.0542126682854759
  0.4170013536401962  0.5815850886696557  0.2265016114091006
  0.6646914923924960  0.5816481137704842  0.0549801378099866
  0.9157740667371166  0.5819205803101588  0.0541482003791661
  0.9123780218963106  0.5815936848071419  0.2264803009441590
  0.1650874552390921  0.8320350565588261  0.0555651315041905
  0.1643407621899821  0.8315871285597954  0.2273227403714548
  0.4146205877717358  0.8319283041171951  0.0556332673854871
  0.4147761048809336  0.8314856533286027  0.2273662161893289
  0.6644374858123542  0.8325561008050091  0.0540639894804466
  0.6654253607378363  0.8297033442255518  0.2263538692043896
  0.9159321432813637  0.8326278069446972  0.0540088931763255
  0.9122090844943392  0.8297247147979903  0.2263115055689356
  0.6649500276300935  0.5820660226863473  0.2374675285057457
 
  0.00000000E+00  0.00000000E+00  0.00000000E+00
  0.00000000E+00  0.00000000E+00  0.00000000E+00
  0.00000000E+00  0.00000000E+00  0.00000000E+00
  0.00000000E+00  0.00000000E+00  0.00000000E+00
  0.00000000E+00  0.00000000E+00  0.00000000E+00
  0.00000000E+00  0.00000000E+00  0.00000000E+00
  0.00000000E+00  0.00000000E+00  0.00000000E+00
  0.00000000E+00  0.00000000E+00  0.00000000E+00
  0.00000000E+00  0.00000000E+00  0.00000000E+00
  0.00000000E+00  0.00000000E+00  0.00000000E+00
  0.00000000E+00  0.00000000E+00  0.00000000E+00
  0.00000000E+00  0.00000000E+00  0.00000000E+00
  0.00000000E+00  0.00000000E+00  0.00000000E+00
  0.00000000E+00  0.00000000E+00  0.00000000E+00
  0.00000000E+00  0.00000000E+00  0.00000000E+00
  0.00000000E+00  0.00000000E+00  0.00000000E+00
  0.00000000E+00  0.00000000E+00  0.00000000E+00
  0.00000000E+00  0.00000000E+00  0.00000000E+00
  0.00000000E+00  0.00000000E+00  0.00000000E+00
  0.00000000E+00  0.00000000E+00  0.00000000E+00
  0.00000000E+00  0.00000000E+00  0.00000000E+00
  0.00000000E+00  0.00000000E+00  0.00000000E+00
  0.00000000E+00  0.00000000E+00  0.00000000E+00
  0.00000000E+00  0.00000000E+00  0.00000000E+00
  0.00000000E+00  0.00000000E+00  0.00000000E+00
  0.00000000E+00  0.00000000E+00  0.00000000E+00
  0.00000000E+00  0.00000000E+00  0.00000000E+00
  0.00000000E+00  0.00000000E+00  0.00000000E+00
  0.00000000E+00  0.00000000E+00  0.00000000E+00
  0.00000000E+00  0.00000000E+00  0.00000000E+00
  0.00000000E+00  0.00000000E+00  0.00000000E+00
  0.00000000E+00  0.00000000E+00  0.00000000E+00
  0.00000000E+00  0.00000000E+00  0.00000000E+00
  0.00000000E+00  0.00000000E+00  0.00000000E+00
  0.00000000E+00  0.00000000E+00  0.00000000E+00
  0.00000000E+00  0.00000000E+00  0.00000000E+00
  0.00000000E+00  0.00000000E+00  0.00000000E+00
  0.00000000E+00  0.00000000E+00  0.00000000E+00
  0.00000000E+00  0.00000000E+00  0.00000000E+00
  0.00000000E+00  0.00000000E+00  0.00000000E+00
  0.00000000E+00  0.00000000E+00  0.00000000E+00
  0.00000000E+00  0.00000000E+00  0.00000000E+00
  0.00000000E+00  0.00000000E+00  0.00000000E+00
  0.00000000E+00  0.00000000E+00  0.00000000E+00
  0.00000000E+00  0.00000000E+00  0.00000000E+00
  0.00000000E+00  0.00000000E+00  0.00000000E+00
  0.00000000E+00  0.00000000E+00  0.00000000E+00
  0.00000000E+00  0.00000000E+00  0.00000000E+00
