POSCARMoS21PdDoped                      
   1.00000000000000     
    12.7690000533999992    0.0000000000000000    0.0000000000000000
    -6.3845000266999996   11.0582784271999994    0.0000000000000000
     0.0000000000000000    0.0000000000000000   18.1282997130999988
   Mo   S    Pd
    16    31     1
Direct
  0.0815337766759606  0.1650133062544940  0.1412121232673339
  0.3315695038576675  0.1655027449810487  0.1414686605105330
  0.5814966706789314  0.1654394801148276  0.1415271408755353
  0.8310472798775488  0.1649465351675265  0.1412642505411492
  0.0815051189834088  0.4154172336800238  0.1412045379793603
  0.3329926364234878  0.4159576193033766  0.1403371901942603
  0.5812521373333930  0.4147780531288188  0.1390003488158022
  0.8306227782850455  0.4159532350024278  0.1403455870394896
  0.0811405612496117  0.6650203889305474  0.1412576641555350
  0.3315526181451594  0.6649730166619258  0.1413068748114043
  0.5812470000963821  0.6653972844229089  0.1388157655698712
  0.8319890782327756  0.6654382225617602  0.1387772408923756
  0.0811658960028370  0.9150434751219353  0.1412636734962480
  0.3313999184182138  0.9151464697261097  0.1417385036931278
  0.5815151900677871  0.9149206096360716  0.1413645088214004
  0.8306729570663988  0.9135599782261178  0.1401625588153763
  0.1650507399606310  0.0818571224320492  0.0554489943280740
  0.1645037284210748  0.0817870441327003  0.2273388175068617
  0.4147040075769298  0.0817620203758936  0.0558580812312034
  0.4147120471430049  0.0820474685882359  0.2275703259409920
  0.6643176033106447  0.0816888262348638  0.0555512501539667
  0.6647524041062112  0.0816698599543650  0.2274078994690118
  0.9147936630663281  0.0819793490263992  0.0552259127850776
  0.9140713646234262  0.0804698700106341  0.2265756382724844
  0.1647307684010163  0.3318389294719256  0.0552727367147760
  0.1658389384825519  0.3323815549250251  0.2265995660351353
  0.4148872014967005  0.3310036995109234  0.0540236751747624
  0.4184125911138136  0.3358223689518495  0.2261886086366625
  0.6637333816162254  0.3309032818426405  0.0540412839164108
  0.6650594723177393  0.3358230979232121  0.2262395978840560
  0.9146678885888447  0.3317428688997776  0.0552979862809719
  0.9141178417740241  0.3323594332847772  0.2266537538336175
  0.1649170654460511  0.5820772192684459  0.0553825679686367
  0.1646005270294585  0.5816613925032895  0.2272523278453509
  0.4147813336870567  0.5826709200883611  0.0538754258274494
  0.4184860761284850  0.5816633770466352  0.2260459558793315
  0.6647758675645069  0.5817688354361209  0.0549747810319381
  0.9156672505221268  0.5826635016493810  0.0538241681012222
  0.9109859348786885  0.5817133925007897  0.2260657836377507
  0.1650599677615845  0.8320167571230639  0.0556726028201088
  0.1642433382107496  0.8315602591228094  0.2273797267863999
  0.4146553889609063  0.8319377390967220  0.0557405922837705
  0.4148127884056682  0.8314587763854606  0.2274491497679351
  0.6637848793818478  0.8317772929921371  0.0538242282719223
  0.6651284115346914  0.8281451853984031  0.2260343962019524
  0.9157661946199219  0.8318154657802505  0.0537451114640625
  0.9109552090283699  0.8282212567905590  0.2259869797193926
  0.6649810144160035  0.5821005571573665  0.2457277065435148
 
  0.00000000E+00  0.00000000E+00  0.00000000E+00
  0.00000000E+00  0.00000000E+00  0.00000000E+00
  0.00000000E+00  0.00000000E+00  0.00000000E+00
  0.00000000E+00  0.00000000E+00  0.00000000E+00
  0.00000000E+00  0.00000000E+00  0.00000000E+00
  0.00000000E+00  0.00000000E+00  0.00000000E+00
  0.00000000E+00  0.00000000E+00  0.00000000E+00
  0.00000000E+00  0.00000000E+00  0.00000000E+00
  0.00000000E+00  0.00000000E+00  0.00000000E+00
  0.00000000E+00  0.00000000E+00  0.00000000E+00
  0.00000000E+00  0.00000000E+00  0.00000000E+00
  0.00000000E+00  0.00000000E+00  0.00000000E+00
  0.00000000E+00  0.00000000E+00  0.00000000E+00
  0.00000000E+00  0.00000000E+00  0.00000000E+00
  0.00000000E+00  0.00000000E+00  0.00000000E+00
  0.00000000E+00  0.00000000E+00  0.00000000E+00
  0.00000000E+00  0.00000000E+00  0.00000000E+00
  0.00000000E+00  0.00000000E+00  0.00000000E+00
  0.00000000E+00  0.00000000E+00  0.00000000E+00
  0.00000000E+00  0.00000000E+00  0.00000000E+00
  0.00000000E+00  0.00000000E+00  0.00000000E+00
  0.00000000E+00  0.00000000E+00  0.00000000E+00
  0.00000000E+00  0.00000000E+00  0.00000000E+00
  0.00000000E+00  0.00000000E+00  0.00000000E+00
  0.00000000E+00  0.00000000E+00  0.00000000E+00
  0.00000000E+00  0.00000000E+00  0.00000000E+00
  0.00000000E+00  0.00000000E+00  0.00000000E+00
  0.00000000E+00  0.00000000E+00  0.00000000E+00
  0.00000000E+00  0.00000000E+00  0.00000000E+00
  0.00000000E+00  0.00000000E+00  0.00000000E+00
  0.00000000E+00  0.00000000E+00  0.00000000E+00
  0.00000000E+00  0.00000000E+00  0.00000000E+00
  0.00000000E+00  0.00000000E+00  0.00000000E+00
  0.00000000E+00  0.00000000E+00  0.00000000E+00
  0.00000000E+00  0.00000000E+00  0.00000000E+00
  0.00000000E+00  0.00000000E+00  0.00000000E+00
  0.00000000E+00  0.00000000E+00  0.00000000E+00
  0.00000000E+00  0.00000000E+00  0.00000000E+00
  0.00000000E+00  0.00000000E+00  0.00000000E+00
  0.00000000E+00  0.00000000E+00  0.00000000E+00
  0.00000000E+00  0.00000000E+00  0.00000000E+00
  0.00000000E+00  0.00000000E+00  0.00000000E+00
  0.00000000E+00  0.00000000E+00  0.00000000E+00
  0.00000000E+00  0.00000000E+00  0.00000000E+00
  0.00000000E+00  0.00000000E+00  0.00000000E+00
  0.00000000E+00  0.00000000E+00  0.00000000E+00
  0.00000000E+00  0.00000000E+00  0.00000000E+00
  0.00000000E+00  0.00000000E+00  0.00000000E+00
