POSCARMoS21PdDoped                      
   1.00000000000000     
    12.7690000533999992    0.0000000000000000    0.0000000000000000
    -6.3845000266999996   11.0582784271999994    0.0000000000000000
     0.0000000000000000    0.0000000000000000   18.1282997130999988
   Mo   S    Cu
    16    31     1
Direct
  0.0815292773095863  0.1650035628086460  0.1412836976894322
  0.3316642962087590  0.1657588148236339  0.1416796676330773
  0.5816637128986440  0.1657051981254863  0.1417474884323881
  0.8310336597108844  0.1649347873170889  0.1413552086946181
  0.0815105547338679  0.4154319629706499  0.1412762185738711
  0.3334876240647293  0.4162015086694302  0.1406189993811571
  0.5808940851857061  0.4140990298865855  0.1384594816641007
  0.8303685100786298  0.4161836219396107  0.1406494648104258
  0.0808733345330090  0.6648247025636786  0.1414970013182025
  0.3316207999003602  0.6648050109606709  0.1415313881319113
  0.5808574846848904  0.6657278996480557  0.1382818601227734
  0.8327390862155358  0.6657810312382347  0.1382165951223973
  0.0809201932950980  0.9149582870697437  0.1415021270769361
  0.3314049931455253  0.9151516483853844  0.1418523119584642
  0.5816750878158368  0.9148447707170076  0.1415995920765463
  0.8304246060468359  0.9130755856510226  0.1404892169871179
  0.1651401486833596  0.0817481123899882  0.0556640868191989
  0.1644140884714564  0.0819020117764791  0.2274812512970008
  0.4148130298335376  0.0819491116144746  0.0560730404459812
  0.4147286576433291  0.0820853305175765  0.2276143481385912
  0.6641514266542762  0.0816023766656895  0.0557659128454855
  0.6649490347471482  0.0817852257507439  0.2275570113337489
  0.9145818055703063  0.0815959348780293  0.0554346700907507
  0.9140455621374597  0.0804202492387465  0.2266080649795285
  0.1650618377391517  0.3320051088172206  0.0554668398433252
  0.1659370015397589  0.3324239520350881  0.2266022940361578
  0.4143767480090804  0.3308286414925262  0.0539818618103898
  0.4184592698490801  0.3358092995899059  0.2266703545734935
  0.6640804125513535  0.3307426579107028  0.0540293468654199
  0.6649815257968414  0.3358125537428740  0.2267352793693855
  0.9144502996849923  0.3318710920324138  0.0555122883249883
  0.9140954205459921  0.3324008829124985  0.2266752863187007
  0.1650058601688918  0.5822902865938391  0.0555861035498098
  0.1644872069016793  0.5814188039698454  0.2274046157446052
  0.4142678128999773  0.5823627155101408  0.0538538215434341
  0.4185095135331602  0.5816923919485317  0.2265226715588943
  0.6647712329955271  0.5817868241566386  0.0545943961361000
  0.9158443851652062  0.5823030848676956  0.0537902153312715
  0.9109394131767898  0.5816977281909749  0.2265612366002491
  0.1648661895509448  0.8319064916902328  0.0559167917834648
  0.1642165431619882  0.8315385738275487  0.2274445346134561
  0.4147630527011687  0.8318640028078997  0.0559636362193392
  0.4148109475023777  0.8314407341927024  0.2275007180327004
  0.6641243419529367  0.8322897957957963  0.0538353279628477
  0.6650418944765270  0.8280901861232378  0.2265100865201442
  0.9159636076793284  0.8323619243412399  0.0537447358533521
  0.9109561274704263  0.8281458000579853  0.2264766089988235
  0.6651563063479401  0.5822370686107925  0.2397045045795463
 
  0.00000000E+00  0.00000000E+00  0.00000000E+00
  0.00000000E+00  0.00000000E+00  0.00000000E+00
  0.00000000E+00  0.00000000E+00  0.00000000E+00
  0.00000000E+00  0.00000000E+00  0.00000000E+00
  0.00000000E+00  0.00000000E+00  0.00000000E+00
  0.00000000E+00  0.00000000E+00  0.00000000E+00
  0.00000000E+00  0.00000000E+00  0.00000000E+00
  0.00000000E+00  0.00000000E+00  0.00000000E+00
  0.00000000E+00  0.00000000E+00  0.00000000E+00
  0.00000000E+00  0.00000000E+00  0.00000000E+00
  0.00000000E+00  0.00000000E+00  0.00000000E+00
  0.00000000E+00  0.00000000E+00  0.00000000E+00
  0.00000000E+00  0.00000000E+00  0.00000000E+00
  0.00000000E+00  0.00000000E+00  0.00000000E+00
  0.00000000E+00  0.00000000E+00  0.00000000E+00
  0.00000000E+00  0.00000000E+00  0.00000000E+00
  0.00000000E+00  0.00000000E+00  0.00000000E+00
  0.00000000E+00  0.00000000E+00  0.00000000E+00
  0.00000000E+00  0.00000000E+00  0.00000000E+00
  0.00000000E+00  0.00000000E+00  0.00000000E+00
  0.00000000E+00  0.00000000E+00  0.00000000E+00
  0.00000000E+00  0.00000000E+00  0.00000000E+00
  0.00000000E+00  0.00000000E+00  0.00000000E+00
  0.00000000E+00  0.00000000E+00  0.00000000E+00
  0.00000000E+00  0.00000000E+00  0.00000000E+00
  0.00000000E+00  0.00000000E+00  0.00000000E+00
  0.00000000E+00  0.00000000E+00  0.00000000E+00
  0.00000000E+00  0.00000000E+00  0.00000000E+00
  0.00000000E+00  0.00000000E+00  0.00000000E+00
  0.00000000E+00  0.00000000E+00  0.00000000E+00
  0.00000000E+00  0.00000000E+00  0.00000000E+00
  0.00000000E+00  0.00000000E+00  0.00000000E+00
  0.00000000E+00  0.00000000E+00  0.00000000E+00
  0.00000000E+00  0.00000000E+00  0.00000000E+00
  0.00000000E+00  0.00000000E+00  0.00000000E+00
  0.00000000E+00  0.00000000E+00  0.00000000E+00
  0.00000000E+00  0.00000000E+00  0.00000000E+00
  0.00000000E+00  0.00000000E+00  0.00000000E+00
  0.00000000E+00  0.00000000E+00  0.00000000E+00
  0.00000000E+00  0.00000000E+00  0.00000000E+00
  0.00000000E+00  0.00000000E+00  0.00000000E+00
  0.00000000E+00  0.00000000E+00  0.00000000E+00
  0.00000000E+00  0.00000000E+00  0.00000000E+00
  0.00000000E+00  0.00000000E+00  0.00000000E+00
  0.00000000E+00  0.00000000E+00  0.00000000E+00
  0.00000000E+00  0.00000000E+00  0.00000000E+00
  0.00000000E+00  0.00000000E+00  0.00000000E+00
  0.00000000E+00  0.00000000E+00  0.00000000E+00
