MoS2\(0\0\1)                            
   1.00000000000000     
    12.7690000533999992    0.0000000000000000    0.0000000000000000
    -6.3845000266999996   11.0582784271999994    0.0000000000000000
     0.0000000000000000    0.0000000000000000   18.1282997130999988
   Mo   S    Co
    16    31     1
Direct
  0.0834909759784640  0.1665094667459614  0.1422893456298841
  0.3337983146476488  0.1673882712732714  0.1423872663833217
  0.5835907329615659  0.1673857765648182  0.1423912784292352
  0.8330196676076944  0.1665090746039625  0.1422915446529750
  0.0834903770236892  0.4169792752132436  0.1422957212053904
  0.3349043953509297  0.4174521410297208  0.1408065736550485
  0.5835870562998734  0.4171701852339020  0.1377103606181165
  0.8325491809748590  0.4174512156350367  0.1408086023570131
  0.0826149944466750  0.6664071536717348  0.1423954281731516
  0.3337962295437785  0.6664059431967371  0.1423940884436412
  0.5835893932517592  0.6664115207374744  0.1377135636979526
  0.8328315011189251  0.6664142565313348  0.1377103274568549
  0.0826133998721124  0.9162025059511688  0.1423876377870898
  0.3333339194312832  0.9166666720962170  0.1430939209551419
  0.5835906719291055  0.9162008755044189  0.1423900034178650
  0.8325489795085037  0.9150972215204547  0.1408052065836245
  0.1669529165701767  0.0830476538196349  0.0567000936326054
  0.1666576227062023  0.0833434811729401  0.2284123349402639
  0.4165535437396649  0.0831013586458835  0.0570043999222491
  0.4171243526133711  0.0842517757309130  0.2286359481035014
  0.6660958419744671  0.0830461561003842  0.0567021012092613
  0.6666880030475740  0.0833406182770768  0.2284150009787741
  0.9169340503561878  0.0838687365139358  0.0561775189317109
  0.9158495920774666  0.0816954923051806  0.2274981856182867
  0.1661300039392845  0.3330701276333946  0.0561806159844063
  0.1683060501419038  0.3341487584534009  0.2274994395922475
  0.4151132210888668  0.3316196475035407  0.0539161994080475
  0.4219683828178798  0.3388955816420133  0.2265780962769096
  0.6665069815677563  0.3316115090927819  0.0539220929751210
  0.6669277489885366  0.3388959808999586  0.2265812353694749
  0.9169402376536407  0.3330688416532342  0.0561817334035008
  0.9158460331845480  0.3341481524451281  0.2275015161886486
  0.1669526223865725  0.5839023503915428  0.0567059038826536
  0.1666527542442870  0.5832985253821041  0.2284214671377149
  0.4151101168656950  0.5834971777918831  0.0539240178980188
  0.4219711654788046  0.5830696712241996  0.2265806133450224
  0.6666694778589870  0.5833325694040420  0.0523541074925475
  0.9183932664190793  0.5834954539576922  0.0539240210620560
  0.9111018729805042  0.5830712773305793  0.2265827234732270
  0.1668977462797302  0.8334429156310385  0.0570069138040832
  0.1657509333776746  0.8328776144830813  0.2286375202730079
  0.4165484879675378  0.8334431946417397  0.0570071760626946
  0.4171265064964295  0.8328742145105746  0.2286368034073015
  0.6665047734176849  0.8348878335741083  0.0539215221175156
  0.6669302596698731  0.8280310571428767  0.2265788818019644
  0.9183827205448858  0.8348881008360263  0.0539164479046028
  0.9111052585430698  0.8280334218790586  0.2265779838668107
  0.6666777890547847  0.5833289864206361  0.2308866744894904
 
  0.00000000E+00  0.00000000E+00  0.00000000E+00
  0.00000000E+00  0.00000000E+00  0.00000000E+00
  0.00000000E+00  0.00000000E+00  0.00000000E+00
  0.00000000E+00  0.00000000E+00  0.00000000E+00
  0.00000000E+00  0.00000000E+00  0.00000000E+00
  0.00000000E+00  0.00000000E+00  0.00000000E+00
  0.00000000E+00  0.00000000E+00  0.00000000E+00
  0.00000000E+00  0.00000000E+00  0.00000000E+00
  0.00000000E+00  0.00000000E+00  0.00000000E+00
  0.00000000E+00  0.00000000E+00  0.00000000E+00
  0.00000000E+00  0.00000000E+00  0.00000000E+00
  0.00000000E+00  0.00000000E+00  0.00000000E+00
  0.00000000E+00  0.00000000E+00  0.00000000E+00
  0.00000000E+00  0.00000000E+00  0.00000000E+00
  0.00000000E+00  0.00000000E+00  0.00000000E+00
  0.00000000E+00  0.00000000E+00  0.00000000E+00
  0.00000000E+00  0.00000000E+00  0.00000000E+00
  0.00000000E+00  0.00000000E+00  0.00000000E+00
  0.00000000E+00  0.00000000E+00  0.00000000E+00
  0.00000000E+00  0.00000000E+00  0.00000000E+00
  0.00000000E+00  0.00000000E+00  0.00000000E+00
  0.00000000E+00  0.00000000E+00  0.00000000E+00
  0.00000000E+00  0.00000000E+00  0.00000000E+00
  0.00000000E+00  0.00000000E+00  0.00000000E+00
  0.00000000E+00  0.00000000E+00  0.00000000E+00
  0.00000000E+00  0.00000000E+00  0.00000000E+00
  0.00000000E+00  0.00000000E+00  0.00000000E+00
  0.00000000E+00  0.00000000E+00  0.00000000E+00
  0.00000000E+00  0.00000000E+00  0.00000000E+00
  0.00000000E+00  0.00000000E+00  0.00000000E+00
  0.00000000E+00  0.00000000E+00  0.00000000E+00
  0.00000000E+00  0.00000000E+00  0.00000000E+00
  0.00000000E+00  0.00000000E+00  0.00000000E+00
  0.00000000E+00  0.00000000E+00  0.00000000E+00
  0.00000000E+00  0.00000000E+00  0.00000000E+00
  0.00000000E+00  0.00000000E+00  0.00000000E+00
  0.00000000E+00  0.00000000E+00  0.00000000E+00
  0.00000000E+00  0.00000000E+00  0.00000000E+00
  0.00000000E+00  0.00000000E+00  0.00000000E+00
  0.00000000E+00  0.00000000E+00  0.00000000E+00
  0.00000000E+00  0.00000000E+00  0.00000000E+00
  0.00000000E+00  0.00000000E+00  0.00000000E+00
  0.00000000E+00  0.00000000E+00  0.00000000E+00
  0.00000000E+00  0.00000000E+00  0.00000000E+00
  0.00000000E+00  0.00000000E+00  0.00000000E+00
  0.00000000E+00  0.00000000E+00  0.00000000E+00
  0.00000000E+00  0.00000000E+00  0.00000000E+00
  0.00000000E+00  0.00000000E+00  0.00000000E+00
