POSCARMoS21PdDoped                      
   1.00000000000000     
    12.7690000533999992    0.0000000000000000    0.0000000000000000
    -6.3845000266999996   11.0582784271999994    0.0000000000000000
     0.0000000000000000    0.0000000000000000   18.1282997130999988
   Mo   S    Ni
    16    31     1
Direct
  0.0815494989936759  0.1649744810608851  0.1418435910659701
  0.3318144973987001  0.1658671636746641  0.1420015192862099
  0.5816297939992312  0.1658479132120503  0.1420558207918567
  0.8310153570245070  0.1649453254919324  0.1419128834215430
  0.0815499252534305  0.4154778362867355  0.1418574868630912
  0.3334190246095635  0.4161352146411919  0.1405799284894705
  0.5816254839145859  0.4154960509928117  0.1378225787697557
  0.8304572962399178  0.4161564925677688  0.1406158653221719
  0.0807492585054608  0.6648935228837142  0.1419705700959308
  0.3318245281200898  0.6648191116692828  0.1420028175210341
  0.5815960149151084  0.6650487465652253  0.1377772655066807
  0.8312517191885274  0.6650571208213426  0.1377804839056139
  0.0807316432555936  0.9147702851905032  0.1419725788737176
  0.3313887415604053  0.9151410690790720  0.1425927374034142
  0.5816517371179317  0.9146927062653777  0.1420126495046223
  0.8304448392767447  0.9131631936023942  0.1405822414692583
  0.1649984703273919  0.0816449234599820  0.0562041798695196
  0.1645678961185348  0.0818647015390514  0.2279572862908349
  0.4146577406411850  0.0816852093738136  0.0565896953348469
  0.4149410307402053  0.0825047152049282  0.2281798263580020
  0.6642144041055856  0.0815862955695149  0.0562911918498985
  0.6647302954445066  0.0817845384839083  0.2280100635539209
  0.9147729642302046  0.0819744014182796  0.0558954376976945
  0.9139858515137822  0.0802766479080961  0.2271221577749237
  0.1645939453541133  0.3317778202835261  0.0558700679425116
  0.1661843989555726  0.3325178359669878  0.2270326377665614
  0.4139041213006993  0.3303682890851474  0.0536824717171234
  0.4199527170416015  0.3370562665999122  0.2262819876201429
  0.6641465530473206  0.3303221383459091  0.0537232644461698
  0.6648612889840240  0.3370875299822683  0.2263175499101749
  0.9147801558743707  0.3317268460942817  0.0559141587943240
  0.9139804296639905  0.3325094066621788  0.2271370240694251
  0.1650186735322075  0.5823171399621957  0.0562153466211338
  0.1645981817979048  0.5816118315403663  0.2279532072206920
  0.4138601764971487  0.5824039106211883  0.0536814418544864
  0.4199498316720397  0.5817114549535094  0.2262942048543348
  0.6648357607863329  0.5818603625012502  0.0529594370225617
  0.9163076390909174  0.5824134303016772  0.0536514911905252
  0.9096573436463870  0.5818001643330313  0.2263103133092022
  0.1649155291588522  0.8319522410414387  0.0565392408963998
  0.1639405122885365  0.8314338623043108  0.2280928571086347
  0.4146254591571986  0.8318752110524190  0.0565858208173718
  0.4150207659225192  0.8313035844958405  0.2281418399360684
  0.6641489836136055  0.8327354232236612  0.0536707418764182
  0.6648733025455840  0.8266848552369319  0.2262811648969930
  0.9163047429913997  0.8327434908569621  0.0536646925496268
  0.9095909986506114  0.8266899685447635  0.2263149911575997
  0.6650384869020765  0.5821856458727185  0.2313754511951413
 
  0.00000000E+00  0.00000000E+00  0.00000000E+00
  0.00000000E+00  0.00000000E+00  0.00000000E+00
  0.00000000E+00  0.00000000E+00  0.00000000E+00
  0.00000000E+00  0.00000000E+00  0.00000000E+00
  0.00000000E+00  0.00000000E+00  0.00000000E+00
  0.00000000E+00  0.00000000E+00  0.00000000E+00
  0.00000000E+00  0.00000000E+00  0.00000000E+00
  0.00000000E+00  0.00000000E+00  0.00000000E+00
  0.00000000E+00  0.00000000E+00  0.00000000E+00
  0.00000000E+00  0.00000000E+00  0.00000000E+00
  0.00000000E+00  0.00000000E+00  0.00000000E+00
  0.00000000E+00  0.00000000E+00  0.00000000E+00
  0.00000000E+00  0.00000000E+00  0.00000000E+00
  0.00000000E+00  0.00000000E+00  0.00000000E+00
  0.00000000E+00  0.00000000E+00  0.00000000E+00
  0.00000000E+00  0.00000000E+00  0.00000000E+00
  0.00000000E+00  0.00000000E+00  0.00000000E+00
  0.00000000E+00  0.00000000E+00  0.00000000E+00
  0.00000000E+00  0.00000000E+00  0.00000000E+00
  0.00000000E+00  0.00000000E+00  0.00000000E+00
  0.00000000E+00  0.00000000E+00  0.00000000E+00
  0.00000000E+00  0.00000000E+00  0.00000000E+00
  0.00000000E+00  0.00000000E+00  0.00000000E+00
  0.00000000E+00  0.00000000E+00  0.00000000E+00
  0.00000000E+00  0.00000000E+00  0.00000000E+00
  0.00000000E+00  0.00000000E+00  0.00000000E+00
  0.00000000E+00  0.00000000E+00  0.00000000E+00
  0.00000000E+00  0.00000000E+00  0.00000000E+00
  0.00000000E+00  0.00000000E+00  0.00000000E+00
  0.00000000E+00  0.00000000E+00  0.00000000E+00
  0.00000000E+00  0.00000000E+00  0.00000000E+00
  0.00000000E+00  0.00000000E+00  0.00000000E+00
  0.00000000E+00  0.00000000E+00  0.00000000E+00
  0.00000000E+00  0.00000000E+00  0.00000000E+00
  0.00000000E+00  0.00000000E+00  0.00000000E+00
  0.00000000E+00  0.00000000E+00  0.00000000E+00
  0.00000000E+00  0.00000000E+00  0.00000000E+00
  0.00000000E+00  0.00000000E+00  0.00000000E+00
  0.00000000E+00  0.00000000E+00  0.00000000E+00
  0.00000000E+00  0.00000000E+00  0.00000000E+00
  0.00000000E+00  0.00000000E+00  0.00000000E+00
  0.00000000E+00  0.00000000E+00  0.00000000E+00
  0.00000000E+00  0.00000000E+00  0.00000000E+00
  0.00000000E+00  0.00000000E+00  0.00000000E+00
  0.00000000E+00  0.00000000E+00  0.00000000E+00
  0.00000000E+00  0.00000000E+00  0.00000000E+00
  0.00000000E+00  0.00000000E+00  0.00000000E+00
  0.00000000E+00  0.00000000E+00  0.00000000E+00
