MoS2\(0\0\1)                            
   1.00000000000000     
    12.7690000533999992    0.0000000000000000    0.0000000000000000
    -6.3845000266999996   11.0582784271999994    0.0000000000000000
     0.0000000000000000    0.0000000000000000   18.1282997130999988
   Mo   S    Rh
    16    31     1
Direct
  0.0834824227549691  0.1665177319563179  0.1416023671411103
  0.3336667518377334  0.1671494874456051  0.1421078004360486
  0.5834846045358377  0.1671489097341614  0.1421077641713965
  0.8330406129357651  0.1665170528930525  0.1416040050540885
  0.0834830303851395  0.4169594014504321  0.1416040860268000
  0.3340068978264342  0.4170016436529753  0.1405463158694800
  0.5836233219205245  0.4172430575860205  0.1381850093313022
  0.8330001756257215  0.4169996447764309  0.1405477635462139
  0.0828510506242076  0.6665152413960503  0.1421078619412784
  0.3336665896107077  0.6665153724327187  0.1421077500777265
  0.5836231072586358  0.6663768888407808  0.1381856754246396
  0.8327569374988487  0.6663766835984593  0.1381847470177654
  0.0828505758709041  0.9163333571264455  0.1421078478980839
  0.3333335822222672  0.9166663317779981  0.1428688421040911
  0.5834845172899581  0.9163334086619022  0.1421076994227279
  0.8329983477091996  0.9159932674365294  0.1405461036072160
  0.1670933302323893  0.0829066420446002  0.0562229251215613
  0.1665276844502701  0.0834724755519248  0.2280384307918941
  0.4164955022027831  0.0829895826673647  0.0567605479699238
  0.4171365015801188  0.0842719680643516  0.2284502869616409
  0.6658165477560603  0.0829072945571649  0.0562241936654760
  0.6669472380743195  0.0834724293481975  0.2280383240928782
  0.9169280102487349  0.0838529372124387  0.0554696162704884
  0.9161846717990048  0.0823627936487178  0.2269283542803618
  0.1661473363840955  0.3330721441811947  0.0554696832730803
  0.1676370525671961  0.3338152377514476  0.2269284830385777
  0.4154538907870614  0.3317876806084876  0.0541851134288150
  0.4214599732840131  0.3387830383263026  0.2263437675198406
  0.6663368130936865  0.3317885456819694  0.0541870239503489
  0.6673247058184506  0.3387836285298698  0.2263425394475242
  0.9169283482412189  0.3330716854045893  0.0554723481675024
  0.9161891801140729  0.3338107902907038  0.2269285715487251
  0.1670926917742925  0.5841834397250858  0.0562242493802116
  0.1665276468013133  0.5830527677185755  0.2280383684740111
  0.4154555247825917  0.5836651976499688  0.0541859803122991
  0.4214618393496339  0.5826757085095048  0.2263424491552194
  0.6666661220700852  0.5833336654158150  0.0533786230255821
  0.9182116783590594  0.5836630798741979  0.0541869228310587
  0.9112159906942076  0.5826752816281411  0.2263423678273716
  0.1670102269607305  0.8335043941399082  0.0567607190305109
  0.1657279812844784  0.8328634410245245  0.2284503988673674
  0.4164957270454711  0.8335042330576325  0.0567612943642000
  0.4171367511849189  0.8328631901243999  0.2284498898742985
  0.6663346814397157  0.8345444962377742  0.0541858768317046
  0.6673244209955645  0.8285383444160079  0.2263423627712645
  0.9182126825057895  0.8345464616299412  0.0541849175952304
  0.9112166079622752  0.8285398313891109  0.2263435265658658
  0.6666702382495377  0.5833299048242488  0.2407503644952236
 
  0.00000000E+00  0.00000000E+00  0.00000000E+00
  0.00000000E+00  0.00000000E+00  0.00000000E+00
  0.00000000E+00  0.00000000E+00  0.00000000E+00
  0.00000000E+00  0.00000000E+00  0.00000000E+00
  0.00000000E+00  0.00000000E+00  0.00000000E+00
  0.00000000E+00  0.00000000E+00  0.00000000E+00
  0.00000000E+00  0.00000000E+00  0.00000000E+00
  0.00000000E+00  0.00000000E+00  0.00000000E+00
  0.00000000E+00  0.00000000E+00  0.00000000E+00
  0.00000000E+00  0.00000000E+00  0.00000000E+00
  0.00000000E+00  0.00000000E+00  0.00000000E+00
  0.00000000E+00  0.00000000E+00  0.00000000E+00
  0.00000000E+00  0.00000000E+00  0.00000000E+00
  0.00000000E+00  0.00000000E+00  0.00000000E+00
  0.00000000E+00  0.00000000E+00  0.00000000E+00
  0.00000000E+00  0.00000000E+00  0.00000000E+00
  0.00000000E+00  0.00000000E+00  0.00000000E+00
  0.00000000E+00  0.00000000E+00  0.00000000E+00
  0.00000000E+00  0.00000000E+00  0.00000000E+00
  0.00000000E+00  0.00000000E+00  0.00000000E+00
  0.00000000E+00  0.00000000E+00  0.00000000E+00
  0.00000000E+00  0.00000000E+00  0.00000000E+00
  0.00000000E+00  0.00000000E+00  0.00000000E+00
  0.00000000E+00  0.00000000E+00  0.00000000E+00
  0.00000000E+00  0.00000000E+00  0.00000000E+00
  0.00000000E+00  0.00000000E+00  0.00000000E+00
  0.00000000E+00  0.00000000E+00  0.00000000E+00
  0.00000000E+00  0.00000000E+00  0.00000000E+00
  0.00000000E+00  0.00000000E+00  0.00000000E+00
  0.00000000E+00  0.00000000E+00  0.00000000E+00
  0.00000000E+00  0.00000000E+00  0.00000000E+00
  0.00000000E+00  0.00000000E+00  0.00000000E+00
  0.00000000E+00  0.00000000E+00  0.00000000E+00
  0.00000000E+00  0.00000000E+00  0.00000000E+00
  0.00000000E+00  0.00000000E+00  0.00000000E+00
  0.00000000E+00  0.00000000E+00  0.00000000E+00
  0.00000000E+00  0.00000000E+00  0.00000000E+00
  0.00000000E+00  0.00000000E+00  0.00000000E+00
  0.00000000E+00  0.00000000E+00  0.00000000E+00
  0.00000000E+00  0.00000000E+00  0.00000000E+00
  0.00000000E+00  0.00000000E+00  0.00000000E+00
  0.00000000E+00  0.00000000E+00  0.00000000E+00
  0.00000000E+00  0.00000000E+00  0.00000000E+00
  0.00000000E+00  0.00000000E+00  0.00000000E+00
  0.00000000E+00  0.00000000E+00  0.00000000E+00
  0.00000000E+00  0.00000000E+00  0.00000000E+00
  0.00000000E+00  0.00000000E+00  0.00000000E+00
  0.00000000E+00  0.00000000E+00  0.00000000E+00
