POSCARMoS21PdDoped                      
   1.00000000000000     
    12.7690000533999992    0.0000000000000000    0.0000000000000000
    -6.3845000266999996   11.0582784271999994    0.0000000000000000
     0.0000000000000000    0.0000000000000000   18.1282997130999988
   Mo   S    Ag
    16    31     1
Direct
  0.0815178219137556  0.1650354997258154  0.1409979506951906
  0.3315610213412781  0.1655593440272172  0.1412601983245005
  0.5815438093861961  0.1655008090348119  0.1412721238368643
  0.8310863360583460  0.1649891532906665  0.1410239967817701
  0.0814958037931549  0.4153682523864713  0.1409924294916085
  0.3331315422610148  0.4160306797149138  0.1401602045891845
  0.5807407215117311  0.4138101054280128  0.1382511240887397
  0.8305832365040273  0.4160081821419457  0.1401557552898960
  0.0810933805850866  0.6649657635056165  0.1411200620883168
  0.3315471822656554  0.6649194224978839  0.1411622960018306
  0.5807376815555269  0.6658522627716694  0.1381581550352612
  0.8329475298162455  0.6659025760392080  0.1381208537128764
  0.0811153834758542  0.9150404687269249  0.1411243756259095
  0.3313855239270760  0.9151246866887047  0.1416415540192884
  0.5815684233116052  0.9149375845444842  0.1412057195770006
  0.8306246523738953  0.9134628428379061  0.1400907171755922
  0.1650670678146372  0.0817450535755740  0.0553173177625122
  0.1645066328654181  0.0818868466590241  0.2271246930072018
  0.4146422795671266  0.0816848020773961  0.0557549660684590
  0.4147975220727867  0.0821585172397925  0.2273100122694959
  0.6642026738232631  0.0815976161620000  0.0553671351998406
  0.6648324256405174  0.0818183032521071  0.2271495611046620
  0.9147166991132255  0.0818302116090412  0.0550967209331524
  0.9141015323932565  0.0806005160174569  0.2263353527244587
  0.1648237747976708  0.3318795682416374  0.0551036881600193
  0.1658542059851267  0.3323564346810982  0.2263354593909412
  0.4144745289717803  0.3308028257454419  0.0536433118123271
  0.4177959177206993  0.3353042109119959  0.2261841833800496
  0.6639328668264572  0.3307537810844956  0.0536599258884030
  0.6652060925414214  0.3352669693276216  0.2261875232392353
  0.9146597818291655  0.3318112353717224  0.0551153218371460
  0.9141157797731995  0.3323115251564744  0.2263493043206160
  0.1649833544263874  0.5822321515617591  0.0552752812338336
  0.1645305454947748  0.5815142233737520  0.2270894025817292
  0.4144842436378395  0.5825617931155784  0.0535728552027676
  0.4177839226965724  0.5815050163151287  0.2260992142628573
  0.6647819198129165  0.5818096650914700  0.0549948890254448
  0.9158373862679469  0.5825066161721181  0.0535371329125111
  0.9114932225246094  0.5814971796748037  0.2261058482443874
  0.1650289245124195  0.8319930799034276  0.0556059181039924
  0.1642124524269812  0.8315282973667651  0.2272080627570787
  0.4146520005003942  0.8319327374776740  0.0556771286857276
  0.4148716247942372  0.8314402280047470  0.2272502894870752
  0.6640090236678723  0.8321369011335622  0.0535884838195423
  0.6652280909597441  0.8288100727326670  0.2261062944060766
  0.9158915480351900  0.8321758367819021  0.0534994820632980
  0.9114906046946624  0.8288823648102560  0.2260810407351855
  0.6649693147011431  0.5820541628342453  0.2548589448397476
 
  0.00000000E+00  0.00000000E+00  0.00000000E+00
  0.00000000E+00  0.00000000E+00  0.00000000E+00
  0.00000000E+00  0.00000000E+00  0.00000000E+00
  0.00000000E+00  0.00000000E+00  0.00000000E+00
  0.00000000E+00  0.00000000E+00  0.00000000E+00
  0.00000000E+00  0.00000000E+00  0.00000000E+00
  0.00000000E+00  0.00000000E+00  0.00000000E+00
  0.00000000E+00  0.00000000E+00  0.00000000E+00
  0.00000000E+00  0.00000000E+00  0.00000000E+00
  0.00000000E+00  0.00000000E+00  0.00000000E+00
  0.00000000E+00  0.00000000E+00  0.00000000E+00
  0.00000000E+00  0.00000000E+00  0.00000000E+00
  0.00000000E+00  0.00000000E+00  0.00000000E+00
  0.00000000E+00  0.00000000E+00  0.00000000E+00
  0.00000000E+00  0.00000000E+00  0.00000000E+00
  0.00000000E+00  0.00000000E+00  0.00000000E+00
  0.00000000E+00  0.00000000E+00  0.00000000E+00
  0.00000000E+00  0.00000000E+00  0.00000000E+00
  0.00000000E+00  0.00000000E+00  0.00000000E+00
  0.00000000E+00  0.00000000E+00  0.00000000E+00
  0.00000000E+00  0.00000000E+00  0.00000000E+00
  0.00000000E+00  0.00000000E+00  0.00000000E+00
  0.00000000E+00  0.00000000E+00  0.00000000E+00
  0.00000000E+00  0.00000000E+00  0.00000000E+00
  0.00000000E+00  0.00000000E+00  0.00000000E+00
  0.00000000E+00  0.00000000E+00  0.00000000E+00
  0.00000000E+00  0.00000000E+00  0.00000000E+00
  0.00000000E+00  0.00000000E+00  0.00000000E+00
  0.00000000E+00  0.00000000E+00  0.00000000E+00
  0.00000000E+00  0.00000000E+00  0.00000000E+00
  0.00000000E+00  0.00000000E+00  0.00000000E+00
  0.00000000E+00  0.00000000E+00  0.00000000E+00
  0.00000000E+00  0.00000000E+00  0.00000000E+00
  0.00000000E+00  0.00000000E+00  0.00000000E+00
  0.00000000E+00  0.00000000E+00  0.00000000E+00
  0.00000000E+00  0.00000000E+00  0.00000000E+00
  0.00000000E+00  0.00000000E+00  0.00000000E+00
  0.00000000E+00  0.00000000E+00  0.00000000E+00
  0.00000000E+00  0.00000000E+00  0.00000000E+00
  0.00000000E+00  0.00000000E+00  0.00000000E+00
  0.00000000E+00  0.00000000E+00  0.00000000E+00
  0.00000000E+00  0.00000000E+00  0.00000000E+00
  0.00000000E+00  0.00000000E+00  0.00000000E+00
  0.00000000E+00  0.00000000E+00  0.00000000E+00
  0.00000000E+00  0.00000000E+00  0.00000000E+00
  0.00000000E+00  0.00000000E+00  0.00000000E+00
  0.00000000E+00  0.00000000E+00  0.00000000E+00
  0.00000000E+00  0.00000000E+00  0.00000000E+00
