POSCARMoS21PdDoped                      
   1.00000000000000     
    12.7690000533999992    0.0000000000000000    0.0000000000000000
    -6.3845000266999996   11.0582784271999994    0.0000000000000000
     0.0000000000000000    0.0000000000000000   18.1282997130999988
   Mo   S    Pt
    16    31     1
Direct
  0.0815049155770876  0.1650572480578580  0.1411959640271971
  0.3312667115665009  0.1651853479924895  0.1414163301184638
  0.5814671933055069  0.1651190665784375  0.1414739686502672
  0.8311143315781510  0.1649875212605510  0.1412440951029410
  0.0814611226507832  0.4153552608789456  0.1411905204964208
  0.3326334033826359  0.4157888398088366  0.1405503835611588
  0.5804227225213955  0.4131332613394270  0.1396551691797535
  0.8307861599745072  0.4157741549399839  0.1405565478445021
  0.0814625354146621  0.6650517830205652  0.1411743462571351
  0.3312728770912750  0.6649988464182882  0.1412340699508992
  0.5804293421347334  0.6662289664291429  0.1394452680020825
  0.8336591034679649  0.6662606644516751  0.1393778148134467
  0.0814698568062411  0.9153356563225340  0.1411966244006271
  0.3314027326120460  0.9151493227312537  0.1416895485656471
  0.5814907365186686  0.9152200422904321  0.1412898906211743
  0.8308469302030451  0.9139042208203815  0.1403443965523325
  0.1649688534280215  0.0819652308179378  0.0553168002622055
  0.1644666317514878  0.0817975730532196  0.2273507914450763
  0.4146667504494769  0.0816820899342994  0.0557784497101428
  0.4146380464979280  0.0818945570853026  0.2275206714362737
  0.6645153931363409  0.0818073059453023  0.0553980634583552
  0.6647791563998889  0.0816705354936419  0.2274096702353787
  0.9147952964228077  0.0819740276151258  0.0552318900280561
  0.9141984739325597  0.0806984378014024  0.2266626443622527
  0.1647537399702609  0.3318620417012224  0.0552834659971918
  0.1655708450644269  0.3322735187501877  0.2266981099870448
  0.4146816011436540  0.3308329109110742  0.0541449393873023
  0.4170681134353602  0.3342876326877272  0.2263518456679719
  0.6637420783476897  0.3307106877345035  0.0541710612606433
  0.6647813218810135  0.3342048311511379  0.2264081384783983
  0.9146473122254836  0.3317680695815438  0.0553075582056747
  0.9142232726844488  0.3322416950501391  0.2267477586166084
  0.1648152465530733  0.5818793846452415  0.0552350401608974
  0.1645997651224573  0.5816583681069630  0.2272409003024440
  0.4145841266560844  0.5826370283934498  0.0539823917278563
  0.4172003601032160  0.5818568476667032  0.2262074339920798
  0.6647618212431661  0.5817631133799184  0.0561050931404158
  0.9158385302034667  0.5826363230002157  0.0539172723174268
  0.9125154387007718  0.5819265193314875  0.2261922194294637
  0.1651646532317462  0.8320825010419272  0.0555588129489103
  0.1643894291940275  0.8316289163154210  0.2273082989687805
  0.4146152582554575  0.8319985214185095  0.0556245618141837
  0.4147333102906204  0.8315404078153570  0.2273667034031943
  0.6638029519096891  0.8319749982698759  0.0539251094133615
  0.6649456619875849  0.8294687390733209  0.2261643550790298
  0.9159556337680564  0.8320140153967315  0.0538362068560388
  0.9124026479439210  0.8294774393792924  0.2261209589272328
  0.6651456142304997  0.5821319049360042  0.2417201066296639
 
  0.00000000E+00  0.00000000E+00  0.00000000E+00
  0.00000000E+00  0.00000000E+00  0.00000000E+00
  0.00000000E+00  0.00000000E+00  0.00000000E+00
  0.00000000E+00  0.00000000E+00  0.00000000E+00
  0.00000000E+00  0.00000000E+00  0.00000000E+00
  0.00000000E+00  0.00000000E+00  0.00000000E+00
  0.00000000E+00  0.00000000E+00  0.00000000E+00
  0.00000000E+00  0.00000000E+00  0.00000000E+00
  0.00000000E+00  0.00000000E+00  0.00000000E+00
  0.00000000E+00  0.00000000E+00  0.00000000E+00
  0.00000000E+00  0.00000000E+00  0.00000000E+00
  0.00000000E+00  0.00000000E+00  0.00000000E+00
  0.00000000E+00  0.00000000E+00  0.00000000E+00
  0.00000000E+00  0.00000000E+00  0.00000000E+00
  0.00000000E+00  0.00000000E+00  0.00000000E+00
  0.00000000E+00  0.00000000E+00  0.00000000E+00
  0.00000000E+00  0.00000000E+00  0.00000000E+00
  0.00000000E+00  0.00000000E+00  0.00000000E+00
  0.00000000E+00  0.00000000E+00  0.00000000E+00
  0.00000000E+00  0.00000000E+00  0.00000000E+00
  0.00000000E+00  0.00000000E+00  0.00000000E+00
  0.00000000E+00  0.00000000E+00  0.00000000E+00
  0.00000000E+00  0.00000000E+00  0.00000000E+00
  0.00000000E+00  0.00000000E+00  0.00000000E+00
  0.00000000E+00  0.00000000E+00  0.00000000E+00
  0.00000000E+00  0.00000000E+00  0.00000000E+00
  0.00000000E+00  0.00000000E+00  0.00000000E+00
  0.00000000E+00  0.00000000E+00  0.00000000E+00
  0.00000000E+00  0.00000000E+00  0.00000000E+00
  0.00000000E+00  0.00000000E+00  0.00000000E+00
  0.00000000E+00  0.00000000E+00  0.00000000E+00
  0.00000000E+00  0.00000000E+00  0.00000000E+00
  0.00000000E+00  0.00000000E+00  0.00000000E+00
  0.00000000E+00  0.00000000E+00  0.00000000E+00
  0.00000000E+00  0.00000000E+00  0.00000000E+00
  0.00000000E+00  0.00000000E+00  0.00000000E+00
  0.00000000E+00  0.00000000E+00  0.00000000E+00
  0.00000000E+00  0.00000000E+00  0.00000000E+00
  0.00000000E+00  0.00000000E+00  0.00000000E+00
  0.00000000E+00  0.00000000E+00  0.00000000E+00
  0.00000000E+00  0.00000000E+00  0.00000000E+00
  0.00000000E+00  0.00000000E+00  0.00000000E+00
  0.00000000E+00  0.00000000E+00  0.00000000E+00
  0.00000000E+00  0.00000000E+00  0.00000000E+00
  0.00000000E+00  0.00000000E+00  0.00000000E+00
  0.00000000E+00  0.00000000E+00  0.00000000E+00
  0.00000000E+00  0.00000000E+00  0.00000000E+00
  0.00000000E+00  0.00000000E+00  0.00000000E+00
