POSCARxPz1                              
   1.00000000000000     
    12.7690000533999992    0.0000000000000000    0.0000000000000000
    -6.3845000266999996   11.0582784271999994    0.0000000000000000
     0.0000000000000000    0.0000000000000000   18.1282997130999988
   Mo   S    Rh   C    H 
    16    31     1     2     6
Direct
  0.0777399134449844  0.1640032678069789  0.1419008688575346
  0.3273969705243981  0.1635843322124796  0.1429130603009059
  0.5775839826054450  0.1651493197196108  0.1432565114247980
  0.8275535885878261  0.1644080832899973  0.1418617541421423
  0.0777770320392711  0.4142096553879838  0.1414637617764656
  0.3280598458177745  0.4142295156758132  0.1427821066172660
  0.5796632472608428  0.4185432304173956  0.1464657901575039
  0.8275150329251326  0.4145250978247987  0.1415558046229744
  0.0782036745732167  0.6637866050589308  0.1402441500774899
  0.3274829057942979  0.6639476944455519  0.1412645979279156
  0.5781198939596648  0.6665567244493377  0.1406036250267818
  0.8332483315574338  0.6669659495147874  0.1363372917373591
  0.0771179832701210  0.9140961143477708  0.1415240802334641
  0.3278177879545924  0.9144819714635676  0.1419959243433274
  0.5777383128183965  0.9150232850202662  0.1419026591766229
  0.8267456549486977  0.9131724597634269  0.1402996457941635
  0.1622183334975447  0.0815624450831478  0.0562197973899354
  0.1593803898953197  0.0794816134849856  0.2281110616122575
  0.4119041775121412  0.0821062293741118  0.0568253685353579
  0.4104876887780817  0.0800793739166221  0.2288255352446526
  0.6603753567881213  0.0823709983387090  0.0565007790260815
  0.6614691226659036  0.0810671884539711  0.2282773018234015
  0.9113115713892341  0.0816082383283464  0.0557499687545554
  0.9102612685231297  0.0796288980038750  0.2270485126939028
  0.1619930806707991  0.3308194561372989  0.0561553566873105
  0.1602112226049096  0.3306825550818052  0.2279274302460442
  0.4150179721570479  0.3328463149368376  0.0587003400855021
  0.4072351240837336  0.3287091112379338  0.2294695381738572
  0.6582278166332037  0.3334964870053475  0.0583318575819168
  0.6633135461020909  0.3327915989706503  0.2293360958862532
  0.9105654632417692  0.3305740008154591  0.0557418913646417
  0.9112379870049367  0.3313203741623081  0.2275126925961216
  0.1618052680268060  0.5803059156573274  0.0549514591387511
  0.1607854289607212  0.5809678700174478  0.2270950330627729
  0.4108658492084409  0.5798903702593818  0.0551409809116749
  0.4126018950579305  0.5817020241179072  0.2270182736393002
  0.6605224549137437  0.5802379503190785  0.0577089225243660
  0.9125469023289851  0.5785524303821429  0.0524603459635421
  0.9101169752148102  0.5820774439991953  0.2250874661411055
  0.1618733126745701  0.8320598352657173  0.0554831400421358
  0.1601728302644333  0.8298039637676008  0.2269852680888534
  0.4113144894092297  0.8314761045857864  0.0558911021782770
  0.4105916893031252  0.8303594433055013  0.2275880737810924
  0.6596921597363066  0.8316773588271504  0.0544585966537783
  0.6620057182605734  0.8299177976725256  0.2272882068014470
  0.9136477117821741  0.8335524505802882  0.0527419078371944
  0.9049376996137757  0.8255554441923241  0.2266871143192629
  0.6817192204048544  0.6147233033501140  0.2478515939693895
  0.6564865276060426  0.5941505526642235  0.3616625003022207
  0.7599133145811251  0.5836471577610249  0.3938350615857187
  0.6617925817781185  0.6817135720278962  0.3730131281157191
  0.5671119058141345  0.5193285878003917  0.3770804423761173
  0.7538124890156249  0.4969471987566375  0.3797075816700299
  0.7583090889744136  0.5883712754064584  0.4548120252044899
  0.8489455030833482  0.6574148302725653  0.3761348528763285
  0.5800141343568014  0.4815131792810955  0.2590671528978807
 
  0.00000000E+00  0.00000000E+00  0.00000000E+00
  0.00000000E+00  0.00000000E+00  0.00000000E+00
  0.00000000E+00  0.00000000E+00  0.00000000E+00
  0.00000000E+00  0.00000000E+00  0.00000000E+00
  0.00000000E+00  0.00000000E+00  0.00000000E+00
  0.00000000E+00  0.00000000E+00  0.00000000E+00
  0.00000000E+00  0.00000000E+00  0.00000000E+00
  0.00000000E+00  0.00000000E+00  0.00000000E+00
  0.00000000E+00  0.00000000E+00  0.00000000E+00
  0.00000000E+00  0.00000000E+00  0.00000000E+00
  0.00000000E+00  0.00000000E+00  0.00000000E+00
  0.00000000E+00  0.00000000E+00  0.00000000E+00
  0.00000000E+00  0.00000000E+00  0.00000000E+00
  0.00000000E+00  0.00000000E+00  0.00000000E+00
  0.00000000E+00  0.00000000E+00  0.00000000E+00
  0.00000000E+00  0.00000000E+00  0.00000000E+00
  0.00000000E+00  0.00000000E+00  0.00000000E+00
  0.00000000E+00  0.00000000E+00  0.00000000E+00
  0.00000000E+00  0.00000000E+00  0.00000000E+00
  0.00000000E+00  0.00000000E+00  0.00000000E+00
  0.00000000E+00  0.00000000E+00  0.00000000E+00
  0.00000000E+00  0.00000000E+00  0.00000000E+00
  0.00000000E+00  0.00000000E+00  0.00000000E+00
  0.00000000E+00  0.00000000E+00  0.00000000E+00
  0.00000000E+00  0.00000000E+00  0.00000000E+00
  0.00000000E+00  0.00000000E+00  0.00000000E+00
  0.00000000E+00  0.00000000E+00  0.00000000E+00
  0.00000000E+00  0.00000000E+00  0.00000000E+00
  0.00000000E+00  0.00000000E+00  0.00000000E+00
  0.00000000E+00  0.00000000E+00  0.00000000E+00
  0.00000000E+00  0.00000000E+00  0.00000000E+00
  0.00000000E+00  0.00000000E+00  0.00000000E+00
  0.00000000E+00  0.00000000E+00  0.00000000E+00
  0.00000000E+00  0.00000000E+00  0.00000000E+00
  0.00000000E+00  0.00000000E+00  0.00000000E+00
  0.00000000E+00  0.00000000E+00  0.00000000E+00
  0.00000000E+00  0.00000000E+00  0.00000000E+00
  0.00000000E+00  0.00000000E+00  0.00000000E+00
  0.00000000E+00  0.00000000E+00  0.00000000E+00
  0.00000000E+00  0.00000000E+00  0.00000000E+00
  0.00000000E+00  0.00000000E+00  0.00000000E+00
  0.00000000E+00  0.00000000E+00  0.00000000E+00
  0.00000000E+00  0.00000000E+00  0.00000000E+00
  0.00000000E+00  0.00000000E+00  0.00000000E+00
  0.00000000E+00  0.00000000E+00  0.00000000E+00
  0.00000000E+00  0.00000000E+00  0.00000000E+00
  0.00000000E+00  0.00000000E+00  0.00000000E+00
  0.00000000E+00  0.00000000E+00  0.00000000E+00
  0.00000000E+00  0.00000000E+00  0.00000000E+00
  0.00000000E+00  0.00000000E+00  0.00000000E+00
  0.00000000E+00  0.00000000E+00  0.00000000E+00
  0.00000000E+00  0.00000000E+00  0.00000000E+00
  0.00000000E+00  0.00000000E+00  0.00000000E+00
  0.00000000E+00  0.00000000E+00  0.00000000E+00
  0.00000000E+00  0.00000000E+00  0.00000000E+00
  0.00000000E+00  0.00000000E+00  0.00000000E+00
