Generated by VASPKIT code               
   1.00000000000000     
    12.7690000533999992    0.0000000000000000    0.0000000000000000
    -6.3845000266999996   11.0582784271999994    0.0000000000000000
     0.0000000000000000    0.0000000000000000   18.1282997130999988
   Mo   S    Rh   C    H 
    16    31     1     2     4
Direct
  0.0817024900164501  0.1653270154085202  0.1414843419649147
  0.3323255825111358  0.1669996483100390  0.1410531563138304
  0.5842402715617069  0.1688487698824764  0.1419266688071060
  0.8321338872565421  0.1655325794121811  0.1419980839671244
  0.0826110575284597  0.4159350920771423  0.1404765569536863
  0.3316665785063720  0.4170838813540430  0.1394778895644133
  0.5807639331264212  0.4134770896420220  0.1350117144580292
  0.8347314802454561  0.4178941261360201  0.1405629408997620
  0.0848430697572105  0.6670030297522952  0.1410188654020829
  0.3325769364119399  0.6668029324917504  0.1408737250783714
  0.5798801344385515  0.6624740753218122  0.1432519026707836
  0.8314271650037122  0.6608293467662273  0.1447268207486314
  0.0825483346833474  0.9155248491314492  0.1425862416881043
  0.3334563802001191  0.9175467580155514  0.1419251087514433
  0.5822123324284426  0.9162806419539061  0.1428837866304027
  0.8311842862809560  0.9140018699188227  0.1440678448599045
  0.1644024000732385  0.0809932839137572  0.0558935684826895
  0.1665143327848440  0.0838169016174605  0.2274897921617494
  0.4171694194730412  0.0842470423446392  0.0560043785468933
  0.4169523991402370  0.0853953344548289  0.2272215229592693
  0.6652175218113994  0.0823123042879771  0.0566262392411914
  0.6661013459049812  0.0847027607733023  0.2283136772945493
  0.9135700269945254  0.0793234743464801  0.0567713199794383
  0.9160095845583718  0.0830310665477935  0.2283643009505776
  0.1639480628361199  0.3312047255004064  0.0544712316722434
  0.1658785122438639  0.3329421348919274  0.2262357949383221
  0.4119130449458471  0.3308951016423568  0.0518182656573531
  0.4194785538836607  0.3390255945860220  0.2243718395056959
  0.6681049249947506  0.3320326522713583  0.0526147175169775
  0.6693276719634609  0.3445791579181249  0.2266513200999312
  0.9157095437914780  0.3314813288793407  0.0550399293404143
  0.9165928414431603  0.3330733958542659  0.2267194632595966
  0.1666821014212984  0.5832387816676469  0.0545502866428352
  0.1666114779603342  0.5822667894893783  0.2267340151113131
  0.4181437605804119  0.5852863876723606  0.0551408789726559
  0.4125472950381789  0.5805850682485468  0.2270246407390186
  0.6675306645220075  0.5850427361999534  0.0575270877299825
  0.9167197836590357  0.5850775857614374  0.0559808468339965
  0.9211850443894463  0.5809707580589361  0.2279052621104847
  0.1668740968072309  0.8344004237614790  0.0558691666127190
  0.1672628571137759  0.8330809810487444  0.2279017730475653
  0.4172798488600045  0.8346766947676441  0.0560089562091152
  0.4150122137302717  0.8327169875616112  0.2278898364310681
  0.6647229876601959  0.8302608475524252  0.0581814425406159
  0.6640586096809997  0.8307061428765327  0.2290176659217909
  0.9131082236155007  0.8286948523906532  0.0586497513010317
  0.9166710539192454  0.8322070912538977  0.2290546840385433
  0.6421646433202571  0.5354865086904191  0.2588742583642070
  0.6536853588015914  0.5216583160355878  0.3733738233652457
  0.6190006020007361  0.5984198745844952  0.3654734927683819
  0.6788068232997726  0.4685051523462030  0.4077343686134466
  0.5925321260230062  0.6599322818197488  0.3886388759489924
  0.7788376145545504  0.6360297475457882  0.2538664148628199
  0.6267897443644866  0.6475890841288764  0.2825707184372076
 
 -0.16650736E-03 -0.13858131E-02  0.96911178E-03
 -0.13821029E-02 -0.18002214E-02 -0.18975798E-02
  0.53118575E-02 -0.35975137E-03 -0.29957409E-02
 -0.35270848E-03 -0.13838434E-02  0.14568836E-02
  0.14702845E-02  0.16108590E-03  0.78500142E-03
 -0.25611629E-02 -0.17641317E-03 -0.80080537E-02
 -0.21642274E-02 -0.15176227E-01 -0.32535414E-01
  0.54049077E-02  0.14190578E-02 -0.13346680E-02
  0.81891731E-02  0.23542801E-02 -0.12700245E-02
  0.90976819E-02 -0.16717509E-02  0.19625231E-02
  0.15501881E-01 -0.29194578E-01 -0.33048371E-01
  0.82914245E-02  0.93780078E-02 -0.57835417E-02
  0.77433086E-03 -0.65236186E-03  0.10283778E-02
  0.23365779E-02 -0.24321493E-05  0.12669400E-02
  0.46328168E-02 -0.48350018E-02  0.11561708E-02
  0.29613998E-02 -0.21042694E-02 -0.28829035E-02
 -0.11837531E-02 -0.16528947E-02  0.44788709E-03
  0.11942412E-02 -0.22664369E-02  0.35659645E-04
  0.46872878E-03 -0.15358137E-02 -0.96476665E-04
  0.20335796E-02  0.17585276E-02 -0.11625871E-02
  0.15759924E-02 -0.31763714E-02  0.11853679E-02
  0.90762148E-03 -0.59474924E-03  0.29029211E-02
 -0.73843864E-03  0.11525578E-03  0.10106715E-02
 -0.21128483E-02 -0.26697370E-02  0.48926172E-03
 -0.43222254E-02 -0.28032286E-02 -0.19913475E-02
  0.11615072E-02  0.80549189E-03 -0.97722052E-03
 -0.80286869E-02 -0.92578619E-02 -0.13026423E-01
 -0.47356186E-02 -0.12371970E-03 -0.35699274E-02
  0.15967152E-01 -0.58574747E-02 -0.13259051E-01
 -0.50904299E-02  0.15859017E-01 -0.67659644E-02
  0.29278236E-02 -0.10351179E-02 -0.34799552E-04
  0.12455205E-02  0.62282413E-03  0.25820884E-02
  0.49434690E-02  0.83251618E-03  0.13619631E-02
  0.63388358E-02  0.53843393E-03  0.12033440E-02
 -0.36770362E-02 -0.34106951E-02 -0.12137030E-01
  0.32176435E-01 -0.35176016E-02 -0.57137589E-02
  0.21106358E-01 -0.60823721E-02 -0.23848140E-01
  0.68389762E-02 -0.20274985E-02 -0.12863007E-02
  0.14003570E-01  0.96714032E-02 -0.96253067E-02
  0.22105478E-02  0.20039567E-02  0.11887926E-02
  0.23152985E-02  0.10564914E-02  0.15320363E-02
  0.26601183E-02 -0.67307306E-03  0.31455227E-02
  0.45247129E-02 -0.10982486E-02  0.13655317E-02
  0.27560475E-02 -0.95328366E-03 -0.70397777E-02
  0.13881338E-01 -0.49963458E-01 -0.21226686E-01
  0.23783374E-02  0.36520391E-02 -0.22177638E-02
 -0.16161492E-02  0.86861624E-03  0.13080407E-02
  0.31624823E-01 -0.72871574E-01 -0.13245518E+00
 -0.61349602E-01  0.72359937E-01 -0.19796324E+00
 -0.53856585E-01  0.16329150E+00 -0.21494114E+00
 -0.15231260E+00  0.11340119E+00 -0.22570082E-01
  0.23034692E-02  0.31717042E-02  0.18378958E+00
  0.19452252E-01 -0.22345610E-01 -0.72331875E-01
  0.46965515E-01 -0.14764329E+00  0.86040586E+00
