POSCAR29_1                              
   1.00000000000000     
    12.7690000533999992    0.0000000000000000    0.0000000000000000
    -6.3845000266999996   11.0582784271999994    0.0000000000000000
     0.0000000000000000    0.0000000000000000   18.1282997130999988
   Mo   S    Rh   C    H 
    16    31     1     2     4
Direct
  0.0809850354467377  0.1669308854665885  0.1415564053002644
  0.3317200848739802  0.1687160226807778  0.1413295923841923
  0.5825982986434612  0.1689960917923308  0.1410483254752510
  0.8311559776923249  0.1669618642096929  0.1411855190938013
  0.0812581420606274  0.4173079751960527  0.1404303620910114
  0.3312302797767427  0.4187759458735986  0.1405943814043200
  0.5817359274404607  0.4145701482614829  0.1357075171105922
  0.8328563738530812  0.4183509547817524  0.1396432207396232
  0.0819263064280737  0.6679261175364382  0.1409191091385657
  0.3303474096078937  0.6681705612043011  0.1408619493005564
  0.5791685519216800  0.6672713527208531  0.1437579990543406
  0.8287473532223819  0.6610575497230778  0.1442927737659546
  0.0808829985974592  0.9169358790320516  0.1424862509335411
  0.3314670516645618  0.9185638455536854  0.1415771210846351
  0.5808951584029307  0.9179482908778730  0.1420573400058982
  0.8297195394468714  0.9156194211218803  0.1435194102268504
  0.1638220274531727  0.0828097256973586  0.0559949783712775
  0.1653488592666490  0.0851728399320483  0.2276502314284680
  0.4150000563130894  0.0852322579275132  0.0556370774944389
  0.4157852989689821  0.0860955928581129  0.2269907821402586
  0.6642344394002846  0.0834801793895427  0.0555588741409323
  0.6650397043831572  0.0858337481288363  0.2274000470527581
  0.9134771142751670  0.0811588608225986  0.0563310698551713
  0.9146639501520082  0.0845632063839234  0.2278534397595600
  0.1640693992390119  0.3331791378647863  0.0549821678642339
  0.1644603999942581  0.3343282625564432  0.2266194377037171
  0.4121140005516802  0.3335017893786588  0.0528647271684214
  0.4200698404901481  0.3405286336529382  0.2250636819181674
  0.6661077406181081  0.3324493661920151  0.0520498246736693
  0.6687588160158875  0.3428311551068898  0.2262747572630220
  0.9150762511579253  0.3328833092841488  0.0543749653252456
  0.9149868770572236  0.3341980395136382  0.2261594636928291
  0.1644734934241647  0.5845211249543227  0.0545644816894015
  0.1639608642772717  0.5837086955772056  0.2266623766509401
  0.4155518960144127  0.5856655054597701  0.0556362429112921
  0.4101378744946922  0.5833695644445026  0.2271526735123023
  0.6646575747605996  0.5862914239052953  0.0582438569616104
  0.9144013705363147  0.5865015701002593  0.0553819920460520
  0.9165312745165486  0.5811642595930722  0.2276275860145796
  0.1645014660558699  0.8353854675717649  0.0557531761274951
  0.1649728946581444  0.8341626120461498  0.2276333986651776
  0.4149185800191810  0.8354636105672119  0.0555063730461468
  0.4136699351470401  0.8345311364549058  0.2274351329850155
  0.6639118195047223  0.8326199648564119  0.0573041125009501
  0.6635609393606920  0.8357253231296512  0.2288899741434194
  0.9115330378542015  0.8295650086334808  0.0584040226602144
  0.9138021457029553  0.8321789820597693  0.2285905211008665
  0.6494387001490169  0.5342855780315131  0.2629068204226373
  0.6468765445713549  0.5046997806307350  0.3775945191747898
  0.6043795948943835  0.5738776400986023  0.3671743400487110
  0.6751489247248595  0.4520708287489353  0.4098850845909879
  0.5679487529309415  0.6311250339005376  0.3822445451486595
  0.7742463571280329  0.6470523383918004  0.2731341990827153
  0.6239166968585458  0.6430355901222075  0.2413716905544738
 
  0.00000000E+00  0.00000000E+00  0.00000000E+00
  0.00000000E+00  0.00000000E+00  0.00000000E+00
  0.00000000E+00  0.00000000E+00  0.00000000E+00
  0.00000000E+00  0.00000000E+00  0.00000000E+00
  0.00000000E+00  0.00000000E+00  0.00000000E+00
  0.00000000E+00  0.00000000E+00  0.00000000E+00
  0.00000000E+00  0.00000000E+00  0.00000000E+00
  0.00000000E+00  0.00000000E+00  0.00000000E+00
  0.00000000E+00  0.00000000E+00  0.00000000E+00
  0.00000000E+00  0.00000000E+00  0.00000000E+00
  0.00000000E+00  0.00000000E+00  0.00000000E+00
  0.00000000E+00  0.00000000E+00  0.00000000E+00
  0.00000000E+00  0.00000000E+00  0.00000000E+00
  0.00000000E+00  0.00000000E+00  0.00000000E+00
  0.00000000E+00  0.00000000E+00  0.00000000E+00
  0.00000000E+00  0.00000000E+00  0.00000000E+00
  0.00000000E+00  0.00000000E+00  0.00000000E+00
  0.00000000E+00  0.00000000E+00  0.00000000E+00
  0.00000000E+00  0.00000000E+00  0.00000000E+00
  0.00000000E+00  0.00000000E+00  0.00000000E+00
  0.00000000E+00  0.00000000E+00  0.00000000E+00
  0.00000000E+00  0.00000000E+00  0.00000000E+00
  0.00000000E+00  0.00000000E+00  0.00000000E+00
  0.00000000E+00  0.00000000E+00  0.00000000E+00
  0.00000000E+00  0.00000000E+00  0.00000000E+00
  0.00000000E+00  0.00000000E+00  0.00000000E+00
  0.00000000E+00  0.00000000E+00  0.00000000E+00
  0.00000000E+00  0.00000000E+00  0.00000000E+00
  0.00000000E+00  0.00000000E+00  0.00000000E+00
  0.00000000E+00  0.00000000E+00  0.00000000E+00
  0.00000000E+00  0.00000000E+00  0.00000000E+00
  0.00000000E+00  0.00000000E+00  0.00000000E+00
  0.00000000E+00  0.00000000E+00  0.00000000E+00
  0.00000000E+00  0.00000000E+00  0.00000000E+00
  0.00000000E+00  0.00000000E+00  0.00000000E+00
  0.00000000E+00  0.00000000E+00  0.00000000E+00
  0.00000000E+00  0.00000000E+00  0.00000000E+00
  0.00000000E+00  0.00000000E+00  0.00000000E+00
  0.00000000E+00  0.00000000E+00  0.00000000E+00
  0.00000000E+00  0.00000000E+00  0.00000000E+00
  0.00000000E+00  0.00000000E+00  0.00000000E+00
  0.00000000E+00  0.00000000E+00  0.00000000E+00
  0.00000000E+00  0.00000000E+00  0.00000000E+00
  0.00000000E+00  0.00000000E+00  0.00000000E+00
  0.00000000E+00  0.00000000E+00  0.00000000E+00
  0.00000000E+00  0.00000000E+00  0.00000000E+00
  0.00000000E+00  0.00000000E+00  0.00000000E+00
  0.00000000E+00  0.00000000E+00  0.00000000E+00
  0.00000000E+00  0.00000000E+00  0.00000000E+00
  0.00000000E+00  0.00000000E+00  0.00000000E+00
  0.00000000E+00  0.00000000E+00  0.00000000E+00
  0.00000000E+00  0.00000000E+00  0.00000000E+00
  0.00000000E+00  0.00000000E+00  0.00000000E+00
  0.00000000E+00  0.00000000E+00  0.00000000E+00
