CONTCARs28                              
   1.00000000000000     
    12.7690000533999992    0.0000000000000000    0.0000000000000000
    -6.3845000266999996   11.0582784271999994    0.0000000000000000
     0.0000000000000000    0.0000000000000000   18.1282997130999988
   Mo   S    Rh   C    H 
    16    31     1     2     6
Direct
  0.0750450935853915  0.1590792625598736  0.1417698392253382
  0.3250589743355967  0.1592729150220934  0.1428160344301245
  0.5738665741580601  0.1580992900682894  0.1409151990236393
  0.8246607027276218  0.1589380453996392  0.1403126753737141
  0.0751015502003833  0.4089019164940713  0.1412464284218604
  0.3265940007061876  0.4104706824744230  0.1437208015888839
  0.5814802146339138  0.4118600382807165  0.1443188202469140
  0.8234168050281606  0.4068705449889343  0.1391997599188169
  0.0727459979815556  0.6572402185328382  0.1408276875968360
  0.3240517921255588  0.6592782565607367  0.1421687231441786
  0.5755678013771430  0.6618598887548630  0.1435494843144059
  0.8281414640565786  0.6587986317533817  0.1334275891023212
  0.0723334382280564  0.9078817157486733  0.1415782738381596
  0.3229926616949654  0.9085659635799805  0.1417162224800992
  0.5735131951602775  0.9100000501158954  0.1406833150919329
  0.8224565433557203  0.9091225035728557  0.1400420972307409
  0.1591462520419839  0.0760643977801376  0.0563942803521390
  0.1565068339236762  0.0743454010624628  0.2278909681413487
  0.4062249958789095  0.0755463215176765  0.0559078551877081
  0.4077851016951500  0.0750326851150614  0.2278236122153244
  0.6573527359583029  0.0758296152908484  0.0543873464883083
  0.6582589763536428  0.0761912120829817  0.2266332409426025
  0.9091493441424046  0.0766696002138835  0.0548124825036262
  0.9073546507914465  0.0755353066805578  0.2265207225493588
  0.1611038777168269  0.3265863468241378  0.0565220514378838
  0.1576068953927198  0.3255480374170767  0.2280335199139495
  0.4126008179729148  0.3286451810891635  0.0587027135788663
  0.4108011697826436  0.3269546579010819  0.2287034514584722
  0.6550364758964533  0.3254862851625366  0.0552882726471873
  0.6608899231124536  0.3234683117935593  0.2274726386136919
  0.9093743720639841  0.3248634668894027  0.0541791292006357
  0.9076647648466691  0.3251812311445233  0.2260493825648009
  0.1587734968798383  0.5757444555788869  0.0555769765849358
  0.1559786061007290  0.5751264533422785  0.2273993419117315
  0.4095715087586421  0.5763256515510737  0.0575064633602508
  0.4070972278597769  0.5770136485191757  0.2288478653229116
  0.6550937994704922  0.5752671343398115  0.0574612759354966
  0.9101215691580848  0.5732047441736039  0.0509072732374067
  0.8983993389188478  0.5713780174591621  0.2251957505376102
  0.1563464959703025  0.8251649205907908  0.0557134853545804
  0.1551402046921871  0.8238011742466592  0.2269710375486349
  0.4059626670467976  0.8251318203570740  0.0555681983739145
  0.4073499934464798  0.8265030251180442  0.2274824806572977
  0.6556337611198161  0.8246484023992734  0.0551815951503979
  0.6583551321007296  0.8303900877021609  0.2269054108710414
  0.9087891635037979  0.8292873617349223  0.0519284783055634
  0.8978915602982671  0.8178864080549048  0.2247964349650345
  0.7145016497255058  0.5984278127857637  0.2601737295098454
  0.7392185655312776  0.5856668933635387  0.3795959196527841
  0.6657002833825135  0.6367599787168026  0.3704802336834873
  0.7007954545341712  0.4907554249576541  0.3948964084115145
  0.8361499995505864  0.6431197620949737  0.3894676271051640
  0.7036377197776956  0.7346103882462302  0.3732562767870881
  0.5680610685687010  0.5828085771507335  0.3784383040320722
  0.6006413620001453  0.6167298835815618  0.2428629506630587
  0.6048653456792783  0.4711798860625740  0.2724418662142843
 
  0.00000000E+00  0.00000000E+00  0.00000000E+00
  0.00000000E+00  0.00000000E+00  0.00000000E+00
  0.00000000E+00  0.00000000E+00  0.00000000E+00
  0.00000000E+00  0.00000000E+00  0.00000000E+00
  0.00000000E+00  0.00000000E+00  0.00000000E+00
  0.00000000E+00  0.00000000E+00  0.00000000E+00
  0.00000000E+00  0.00000000E+00  0.00000000E+00
  0.00000000E+00  0.00000000E+00  0.00000000E+00
  0.00000000E+00  0.00000000E+00  0.00000000E+00
  0.00000000E+00  0.00000000E+00  0.00000000E+00
  0.00000000E+00  0.00000000E+00  0.00000000E+00
  0.00000000E+00  0.00000000E+00  0.00000000E+00
  0.00000000E+00  0.00000000E+00  0.00000000E+00
  0.00000000E+00  0.00000000E+00  0.00000000E+00
  0.00000000E+00  0.00000000E+00  0.00000000E+00
  0.00000000E+00  0.00000000E+00  0.00000000E+00
  0.00000000E+00  0.00000000E+00  0.00000000E+00
  0.00000000E+00  0.00000000E+00  0.00000000E+00
  0.00000000E+00  0.00000000E+00  0.00000000E+00
  0.00000000E+00  0.00000000E+00  0.00000000E+00
  0.00000000E+00  0.00000000E+00  0.00000000E+00
  0.00000000E+00  0.00000000E+00  0.00000000E+00
  0.00000000E+00  0.00000000E+00  0.00000000E+00
  0.00000000E+00  0.00000000E+00  0.00000000E+00
  0.00000000E+00  0.00000000E+00  0.00000000E+00
  0.00000000E+00  0.00000000E+00  0.00000000E+00
  0.00000000E+00  0.00000000E+00  0.00000000E+00
  0.00000000E+00  0.00000000E+00  0.00000000E+00
  0.00000000E+00  0.00000000E+00  0.00000000E+00
  0.00000000E+00  0.00000000E+00  0.00000000E+00
  0.00000000E+00  0.00000000E+00  0.00000000E+00
  0.00000000E+00  0.00000000E+00  0.00000000E+00
  0.00000000E+00  0.00000000E+00  0.00000000E+00
  0.00000000E+00  0.00000000E+00  0.00000000E+00
  0.00000000E+00  0.00000000E+00  0.00000000E+00
  0.00000000E+00  0.00000000E+00  0.00000000E+00
  0.00000000E+00  0.00000000E+00  0.00000000E+00
  0.00000000E+00  0.00000000E+00  0.00000000E+00
  0.00000000E+00  0.00000000E+00  0.00000000E+00
  0.00000000E+00  0.00000000E+00  0.00000000E+00
  0.00000000E+00  0.00000000E+00  0.00000000E+00
  0.00000000E+00  0.00000000E+00  0.00000000E+00
  0.00000000E+00  0.00000000E+00  0.00000000E+00
  0.00000000E+00  0.00000000E+00  0.00000000E+00
  0.00000000E+00  0.00000000E+00  0.00000000E+00
  0.00000000E+00  0.00000000E+00  0.00000000E+00
  0.00000000E+00  0.00000000E+00  0.00000000E+00
  0.00000000E+00  0.00000000E+00  0.00000000E+00
  0.00000000E+00  0.00000000E+00  0.00000000E+00
  0.00000000E+00  0.00000000E+00  0.00000000E+00
  0.00000000E+00  0.00000000E+00  0.00000000E+00
  0.00000000E+00  0.00000000E+00  0.00000000E+00
  0.00000000E+00  0.00000000E+00  0.00000000E+00
  0.00000000E+00  0.00000000E+00  0.00000000E+00
  0.00000000E+00  0.00000000E+00  0.00000000E+00
  0.00000000E+00  0.00000000E+00  0.00000000E+00
