CONTCAR45                               
   1.00000000000000     
    12.7690000533999992    0.0000000000000000    0.0000000000000000
    -6.3845000266999996   11.0582784271999994    0.0000000000000000
     0.0000000000000000    0.0000000000000000   18.1282997130999988
   Mo   S    Rh   C    H 
    16    31     1     2     4
Direct
  0.0813775418512209  0.1624745457256181  0.1412078695429345
  0.3307367760031241  0.1620216549052045  0.1414307587435339
  0.5815830926969979  0.1627190194882342  0.1408792022155147
  0.8314755631099279  0.1629371333125509  0.1409823509268395
  0.0815205226630799  0.4130599372945903  0.1413228473838752
  0.3324978014138570  0.4129035472043808  0.1394476481915244
  0.5792561512317447  0.4111256481156171  0.1401011769843454
  0.8311867993360225  0.4131565999748421  0.1423381465734336
  0.0816017275844947  0.6630002156948313  0.1424027674252688
  0.3314823190952961  0.6623125314426964  0.1407827462097562
  0.5784695472014755  0.6654950552533246  0.1350951369493912
  0.8269120512257943  0.6604765180253577  0.1458033126943119
  0.0805365945023855  0.9117516692486268  0.1425360172696933
  0.3310931952826089  0.9125041013279882  0.1414415701493286
  0.5819409295213736  0.9135730204115815  0.1396914608922447
  0.8312008466455522  0.9122775631552775  0.1407404530455638
  0.1635610448749606  0.0774016841444507  0.0558321279224017
  0.1644752264933650  0.0795804192277716  0.2277002513324809
  0.4143111097616886  0.0790651580796383  0.0554153991176570
  0.4150287812445807  0.0792483838557931  0.2271756843745149
  0.6654479032987237  0.0808554500486276  0.0545358386689102
  0.6647353587583988  0.0788496273036166  0.2266278222999359
  0.9152566051970477  0.0795622667242319  0.0551138186886247
  0.9143375578183428  0.0790635515671801  0.2268170679287974
  0.1638300918348987  0.3289556875553379  0.0550529217128978
  0.1661959047913134  0.3300250857094413  0.2262515564009897
  0.4141945166169654  0.3272312361734985  0.0539616988896072
  0.4158246759597330  0.3318314734744311  0.2266247982270463
  0.6655935711713985  0.3301851736881091  0.0546952972518383
  0.6636261301708363  0.3300201088581326  0.2264876127947875
  0.9146329818910905  0.3305580961088634  0.0556760560178862
  0.9149251639764675  0.3288602055753617  0.2274359201296364
  0.1637279563922666  0.5799573272384376  0.0556314546581344
  0.1660545324171153  0.5792891441870797  0.2274776687280833
  0.4117169189433301  0.5792378578703068  0.0516980861779031
  0.4202998987476154  0.5787467982914810  0.2256996751249182
  0.6654971796408952  0.5794208558353697  0.0567956440288441
  0.9124339431011148  0.5813381170501697  0.0581331635914098
  0.9163110553922569  0.5778489953569582  0.2290769156052394
  0.1634399005107580  0.8288467599977565  0.0562135148776885
  0.1653472302215579  0.8296181200561064  0.2282483165594529
  0.4136916619114712  0.8292167955156354  0.0548888329392337
  0.4158523267342620  0.8294546395825451  0.2263000823116016
  0.6673212160532644  0.8336969616950677  0.0515438724937658
  0.6636346014375842  0.8265644115357037  0.2244084089809274
  0.9122954402697728  0.8240622436435723  0.0575498116785992
  0.9127769469835610  0.8297524894245139  0.2284740034202130
  0.6306533961070406  0.5688571118625395  0.2478162199527979
  0.6611921900363894  0.5722761957869213  0.3563982258381437
  0.7157726277630785  0.6699737969830123  0.3991517202060232
  0.6132214133537245  0.4791280149686867  0.3779428857130900
  0.7087306058653589  0.6622177337338466  0.4594191394999601
  0.7625645907576536  0.5964487839033815  0.2612599794263639
  0.7675663111351765  0.7615945018056818  0.3767550432320256
 
  0.00000000E+00  0.00000000E+00  0.00000000E+00
  0.00000000E+00  0.00000000E+00  0.00000000E+00
  0.00000000E+00  0.00000000E+00  0.00000000E+00
  0.00000000E+00  0.00000000E+00  0.00000000E+00
  0.00000000E+00  0.00000000E+00  0.00000000E+00
  0.00000000E+00  0.00000000E+00  0.00000000E+00
  0.00000000E+00  0.00000000E+00  0.00000000E+00
  0.00000000E+00  0.00000000E+00  0.00000000E+00
  0.00000000E+00  0.00000000E+00  0.00000000E+00
  0.00000000E+00  0.00000000E+00  0.00000000E+00
  0.00000000E+00  0.00000000E+00  0.00000000E+00
  0.00000000E+00  0.00000000E+00  0.00000000E+00
  0.00000000E+00  0.00000000E+00  0.00000000E+00
  0.00000000E+00  0.00000000E+00  0.00000000E+00
  0.00000000E+00  0.00000000E+00  0.00000000E+00
  0.00000000E+00  0.00000000E+00  0.00000000E+00
  0.00000000E+00  0.00000000E+00  0.00000000E+00
  0.00000000E+00  0.00000000E+00  0.00000000E+00
  0.00000000E+00  0.00000000E+00  0.00000000E+00
  0.00000000E+00  0.00000000E+00  0.00000000E+00
  0.00000000E+00  0.00000000E+00  0.00000000E+00
  0.00000000E+00  0.00000000E+00  0.00000000E+00
  0.00000000E+00  0.00000000E+00  0.00000000E+00
  0.00000000E+00  0.00000000E+00  0.00000000E+00
  0.00000000E+00  0.00000000E+00  0.00000000E+00
  0.00000000E+00  0.00000000E+00  0.00000000E+00
  0.00000000E+00  0.00000000E+00  0.00000000E+00
  0.00000000E+00  0.00000000E+00  0.00000000E+00
  0.00000000E+00  0.00000000E+00  0.00000000E+00
  0.00000000E+00  0.00000000E+00  0.00000000E+00
  0.00000000E+00  0.00000000E+00  0.00000000E+00
  0.00000000E+00  0.00000000E+00  0.00000000E+00
  0.00000000E+00  0.00000000E+00  0.00000000E+00
  0.00000000E+00  0.00000000E+00  0.00000000E+00
  0.00000000E+00  0.00000000E+00  0.00000000E+00
  0.00000000E+00  0.00000000E+00  0.00000000E+00
  0.00000000E+00  0.00000000E+00  0.00000000E+00
  0.00000000E+00  0.00000000E+00  0.00000000E+00
  0.00000000E+00  0.00000000E+00  0.00000000E+00
  0.00000000E+00  0.00000000E+00  0.00000000E+00
  0.00000000E+00  0.00000000E+00  0.00000000E+00
  0.00000000E+00  0.00000000E+00  0.00000000E+00
  0.00000000E+00  0.00000000E+00  0.00000000E+00
  0.00000000E+00  0.00000000E+00  0.00000000E+00
  0.00000000E+00  0.00000000E+00  0.00000000E+00
  0.00000000E+00  0.00000000E+00  0.00000000E+00
  0.00000000E+00  0.00000000E+00  0.00000000E+00
  0.00000000E+00  0.00000000E+00  0.00000000E+00
  0.00000000E+00  0.00000000E+00  0.00000000E+00
  0.00000000E+00  0.00000000E+00  0.00000000E+00
  0.00000000E+00  0.00000000E+00  0.00000000E+00
  0.00000000E+00  0.00000000E+00  0.00000000E+00
  0.00000000E+00  0.00000000E+00  0.00000000E+00
  0.00000000E+00  0.00000000E+00  0.00000000E+00
