POSCARMoS21PdDoped                      
   1.00000000000000     
    12.7690000533999992    0.0000000000000000    0.0000000000000000
    -6.3845000266999996   11.0582784271999994    0.0000000000000000
     0.0000000000000000    0.0000000000000000   18.1282997130999988
   Mo   S    Rh   C    H 
    16    31     1     2     2
Direct
  0.0807734106341238  0.1634722758632139  0.1419273872771347
  0.3313480282624827  0.1645114862686204  0.1426460611828080
  0.5805883902004040  0.1646301098336063  0.1427164002000081
  0.8301896468458507  0.1635351052773068  0.1419645825764422
  0.0805163074889171  0.4135177632322769  0.1414299691236836
  0.3311898932215908  0.4140428813679251  0.1412372682112120
  0.5830486023594375  0.4186784542519608  0.1431179750078019
  0.8302591271987444  0.4139696016078763  0.1413411278128409
  0.0805571180697104  0.6633688526581931  0.1410537776368068
  0.3304456122917327  0.6634705401361932  0.1410359636941793
  0.5796189943597635  0.6639489370214456  0.1384664886136187
  0.8320733006490356  0.6637779855606178  0.1381166107735434
  0.0803786595947470  0.9137447307359540  0.1419234663149978
  0.3307654784625928  0.9141057674434822  0.1422875008889710
  0.5808055861021075  0.9139515722146594  0.1418394903876256
  0.8297992628638470  0.9122786462932901  0.1405218886654095
  0.1651513456420111  0.0808726420110495  0.0564065853101327
  0.1635984378254477  0.0801696556903954  0.2281932770095140
  0.4144183033800245  0.0813986296351265  0.0568123597009157
  0.4140164904988893  0.0807140276733644  0.2286914877443684
  0.6632968119975672  0.0811809053572770  0.0564126295390713
  0.6640166496482631  0.0802777258141274  0.2282015803605748
  0.9140988946174591  0.0807920653566516  0.0560313502598188
  0.9131834169951804  0.0789182928370143  0.2271012022213951
  0.1638563056401902  0.3297857543727974  0.0557127933160206
  0.1642043086803946  0.3305187622322919  0.2273691545272878
  0.4171817497051667  0.3317075630530493  0.0567053497232932
  0.4159748120831827  0.3341044552507134  0.2275453824274149
  0.6620798054306878  0.3317689542612478  0.0567978296058845
  0.6653177377836927  0.3342600507989554  0.2277315627940970
  0.9133812051138788  0.3297927663506519  0.0557728792796120
  0.9138276648381362  0.3305438676582663  0.2274272321946199
  0.1638394501884821  0.5800935417099914  0.0553164039608088
  0.1639279882904957  0.5802046099479046  0.2272024041101980
  0.4121000012658871  0.5793484894358674  0.0536595284754012
  0.4157553272969749  0.5800574171186295  0.2261093711541027
  0.6637037682344447  0.5799973983050347  0.0554255811672835
  0.9149059643795633  0.5789819903653284  0.0535444002381740
  0.9117729882162051  0.5799839028489578  0.2261038842029439
  0.1644674245312609  0.8312394899046739  0.0560742280448781
  0.1632566062081658  0.8295258566714633  0.2276277701954431
  0.4141704717691450  0.8313017102635788  0.0560117900009368
  0.4138115607821635  0.8296314583773607  0.2276048618475866
  0.6635202707097764  0.8317384408211208  0.0541658850073170
  0.6642465822503801  0.8258501760378646  0.2267599650845255
  0.9157175405158162  0.8317991761214001  0.0540858570807053
  0.9083740089740251  0.8252605295697398  0.2267851667740433
  0.6822732094227645  0.6154367114325831  0.2498444739438640
  0.6258935606678910  0.5076328622982362  0.3443670925678466
  0.6828453589635215  0.6173296771407775  0.3640801813313516
  0.5753459802661876  0.4110728395622351  0.3534207721719288
  0.7217004719370391  0.6919565867164148  0.4025198144887362
 
  0.00000000E+00  0.00000000E+00  0.00000000E+00
  0.00000000E+00  0.00000000E+00  0.00000000E+00
  0.00000000E+00  0.00000000E+00  0.00000000E+00
  0.00000000E+00  0.00000000E+00  0.00000000E+00
  0.00000000E+00  0.00000000E+00  0.00000000E+00
  0.00000000E+00  0.00000000E+00  0.00000000E+00
  0.00000000E+00  0.00000000E+00  0.00000000E+00
  0.00000000E+00  0.00000000E+00  0.00000000E+00
  0.00000000E+00  0.00000000E+00  0.00000000E+00
  0.00000000E+00  0.00000000E+00  0.00000000E+00
  0.00000000E+00  0.00000000E+00  0.00000000E+00
  0.00000000E+00  0.00000000E+00  0.00000000E+00
  0.00000000E+00  0.00000000E+00  0.00000000E+00
  0.00000000E+00  0.00000000E+00  0.00000000E+00
  0.00000000E+00  0.00000000E+00  0.00000000E+00
  0.00000000E+00  0.00000000E+00  0.00000000E+00
  0.00000000E+00  0.00000000E+00  0.00000000E+00
  0.00000000E+00  0.00000000E+00  0.00000000E+00
  0.00000000E+00  0.00000000E+00  0.00000000E+00
  0.00000000E+00  0.00000000E+00  0.00000000E+00
  0.00000000E+00  0.00000000E+00  0.00000000E+00
  0.00000000E+00  0.00000000E+00  0.00000000E+00
  0.00000000E+00  0.00000000E+00  0.00000000E+00
  0.00000000E+00  0.00000000E+00  0.00000000E+00
  0.00000000E+00  0.00000000E+00  0.00000000E+00
  0.00000000E+00  0.00000000E+00  0.00000000E+00
  0.00000000E+00  0.00000000E+00  0.00000000E+00
  0.00000000E+00  0.00000000E+00  0.00000000E+00
  0.00000000E+00  0.00000000E+00  0.00000000E+00
  0.00000000E+00  0.00000000E+00  0.00000000E+00
  0.00000000E+00  0.00000000E+00  0.00000000E+00
  0.00000000E+00  0.00000000E+00  0.00000000E+00
  0.00000000E+00  0.00000000E+00  0.00000000E+00
  0.00000000E+00  0.00000000E+00  0.00000000E+00
  0.00000000E+00  0.00000000E+00  0.00000000E+00
  0.00000000E+00  0.00000000E+00  0.00000000E+00
  0.00000000E+00  0.00000000E+00  0.00000000E+00
  0.00000000E+00  0.00000000E+00  0.00000000E+00
  0.00000000E+00  0.00000000E+00  0.00000000E+00
  0.00000000E+00  0.00000000E+00  0.00000000E+00
  0.00000000E+00  0.00000000E+00  0.00000000E+00
  0.00000000E+00  0.00000000E+00  0.00000000E+00
  0.00000000E+00  0.00000000E+00  0.00000000E+00
  0.00000000E+00  0.00000000E+00  0.00000000E+00
  0.00000000E+00  0.00000000E+00  0.00000000E+00
  0.00000000E+00  0.00000000E+00  0.00000000E+00
  0.00000000E+00  0.00000000E+00  0.00000000E+00
  0.00000000E+00  0.00000000E+00  0.00000000E+00
  0.00000000E+00  0.00000000E+00  0.00000000E+00
  0.00000000E+00  0.00000000E+00  0.00000000E+00
  0.00000000E+00  0.00000000E+00  0.00000000E+00
  0.00000000E+00  0.00000000E+00  0.00000000E+00
