POSCARMoS21Pd_                          
   1.00000000000000     
    12.7690000533999992    0.0000000000000000    0.0000000000000000
    -6.3845000266999996   11.0582784271999994    0.0000000000000000
     0.0000000000000000    0.0000000000000000   18.1282997130999988
   Mo   S    Rh   C    H 
    16    31     1     2     4
Direct
  0.0829361942065172  0.1658685284807437  0.1423134802937724
  0.3331517132720516  0.1662942083247363  0.1423321000543477
  0.5829833332227923  0.1656707906063257  0.1425161690993326
  0.8323876717932674  0.1654243117179408  0.1422989521383298
  0.0830417401579191  0.4161603086637384  0.1424763126315488
  0.3337797066278597  0.4166057702560209  0.1419768291393792
  0.5837651408339896  0.4161315190784566  0.1385162930446153
  0.8318965940788952  0.4161457937331337  0.1403331360748429
  0.0821402093817464  0.6653740618082438  0.1424049487619271
  0.3334657943525455  0.6658373612204702  0.1432135867418725
  0.5852796670346579  0.6632195214270646  0.1429041423532890
  0.8333070002693062  0.6662120554497899  0.1369372779575799
  0.0823350556580698  0.9156430957234436  0.1419285998882150
  0.3328150194845291  0.9156147762646296  0.1432328840729618
  0.5827234742288533  0.9147606358574997  0.1431991852538878
  0.8321572358895659  0.9149490508447468  0.1413537670191580
  0.1666465753025634  0.0827440536948454  0.0564993725805413
  0.1659478211487375  0.0822063561705898  0.2282230380252611
  0.4160246798960059  0.0819045115081744  0.0570360569952839
  0.4164561268299639  0.0832250319400045  0.2287122836688641
  0.6651808965157932  0.0809062078308097  0.0568844790386252
  0.6664553860318688  0.0825291864689110  0.2287782258941086
  0.9161789247852714  0.0828252710847656  0.0561402102660501
  0.9156365227713114  0.0814765530993238  0.2277878475367874
  0.1663695510838110  0.3328864571590561  0.0564632980246024
  0.1667559719304241  0.3328193079914348  0.2281551313637291
  0.4147017252984410  0.3317503251672856  0.0546649486518377
  0.4204074827865754  0.3369190955444359  0.2266785340375882
  0.6653226068690824  0.3300929266946007  0.0543357154020838
  0.6671834238740191  0.3381673525994378  0.2268408365599781
  0.9167524354202619  0.3319916017764413  0.0561170858778288
  0.9150511733536724  0.3331094674215780  0.2272679565705507
  0.1672769204712740  0.5832178109053984  0.0569762888474833
  0.1654338666741826  0.5822658793614035  0.2287512091555883
  0.4187150927452991  0.5842297657567098  0.0569920712715652
  0.4194035949766396  0.5818282892665649  0.2279404985593134
  0.6653990171384948  0.5824411608806458  0.0544823535367204
  0.9183428850747750  0.5827698894821707  0.0536967210461365
  0.9083318468312729  0.5815411042545480  0.2264650411157079
  0.1666840217520670  0.8323283663816915  0.0568580405819487
  0.1648395228887710  0.8319735325337939  0.2284070273070667
  0.4162700730256828  0.8321589126246942  0.0574991424397950
  0.4163404083289809  0.8321336809460077  0.2293670553990207
  0.6640049645718124  0.8294578670732864  0.0567498160590327
  0.6674859974771256  0.8290110524858462  0.2278850939370759
  0.9176929548178603  0.8352880767801849  0.0535032656954939
  0.9114364442466653  0.8282799239910082  0.2260644317691444
  0.6865006404750152  0.5674262914863298  0.2503326491596133
  0.6145722895854794  0.6009006535656295  0.3557533509992329
  0.6997901850294207  0.5666441141210228  0.3710495553872389
  0.6379630541924185  0.6956009948880181  0.3568836273279265
  0.5180747912823028  0.5346000498316068  0.3573679541704718
  0.6724772003574441  0.4736113736329033  0.3862263568334439
  0.7934276636666197  0.6344649841418454  0.3836145943821524
 
  0.00000000E+00  0.00000000E+00  0.00000000E+00
  0.00000000E+00  0.00000000E+00  0.00000000E+00
  0.00000000E+00  0.00000000E+00  0.00000000E+00
  0.00000000E+00  0.00000000E+00  0.00000000E+00
  0.00000000E+00  0.00000000E+00  0.00000000E+00
  0.00000000E+00  0.00000000E+00  0.00000000E+00
  0.00000000E+00  0.00000000E+00  0.00000000E+00
  0.00000000E+00  0.00000000E+00  0.00000000E+00
  0.00000000E+00  0.00000000E+00  0.00000000E+00
  0.00000000E+00  0.00000000E+00  0.00000000E+00
  0.00000000E+00  0.00000000E+00  0.00000000E+00
  0.00000000E+00  0.00000000E+00  0.00000000E+00
  0.00000000E+00  0.00000000E+00  0.00000000E+00
  0.00000000E+00  0.00000000E+00  0.00000000E+00
  0.00000000E+00  0.00000000E+00  0.00000000E+00
  0.00000000E+00  0.00000000E+00  0.00000000E+00
  0.00000000E+00  0.00000000E+00  0.00000000E+00
  0.00000000E+00  0.00000000E+00  0.00000000E+00
  0.00000000E+00  0.00000000E+00  0.00000000E+00
  0.00000000E+00  0.00000000E+00  0.00000000E+00
  0.00000000E+00  0.00000000E+00  0.00000000E+00
  0.00000000E+00  0.00000000E+00  0.00000000E+00
  0.00000000E+00  0.00000000E+00  0.00000000E+00
  0.00000000E+00  0.00000000E+00  0.00000000E+00
  0.00000000E+00  0.00000000E+00  0.00000000E+00
  0.00000000E+00  0.00000000E+00  0.00000000E+00
  0.00000000E+00  0.00000000E+00  0.00000000E+00
  0.00000000E+00  0.00000000E+00  0.00000000E+00
  0.00000000E+00  0.00000000E+00  0.00000000E+00
  0.00000000E+00  0.00000000E+00  0.00000000E+00
  0.00000000E+00  0.00000000E+00  0.00000000E+00
  0.00000000E+00  0.00000000E+00  0.00000000E+00
  0.00000000E+00  0.00000000E+00  0.00000000E+00
  0.00000000E+00  0.00000000E+00  0.00000000E+00
  0.00000000E+00  0.00000000E+00  0.00000000E+00
  0.00000000E+00  0.00000000E+00  0.00000000E+00
  0.00000000E+00  0.00000000E+00  0.00000000E+00
  0.00000000E+00  0.00000000E+00  0.00000000E+00
  0.00000000E+00  0.00000000E+00  0.00000000E+00
  0.00000000E+00  0.00000000E+00  0.00000000E+00
  0.00000000E+00  0.00000000E+00  0.00000000E+00
  0.00000000E+00  0.00000000E+00  0.00000000E+00
  0.00000000E+00  0.00000000E+00  0.00000000E+00
  0.00000000E+00  0.00000000E+00  0.00000000E+00
  0.00000000E+00  0.00000000E+00  0.00000000E+00
  0.00000000E+00  0.00000000E+00  0.00000000E+00
  0.00000000E+00  0.00000000E+00  0.00000000E+00
  0.00000000E+00  0.00000000E+00  0.00000000E+00
  0.00000000E+00  0.00000000E+00  0.00000000E+00
  0.00000000E+00  0.00000000E+00  0.00000000E+00
  0.00000000E+00  0.00000000E+00  0.00000000E+00
  0.00000000E+00  0.00000000E+00  0.00000000E+00
  0.00000000E+00  0.00000000E+00  0.00000000E+00
  0.00000000E+00  0.00000000E+00  0.00000000E+00
