Generated by VASPKIT code               
   1.00000000000000     
    12.7690000533999992    0.0000000000000000    0.0000000000000000
    -6.3845000266999996   11.0582784271999994    0.0000000000000000
     0.0000000000000000    0.0000000000000000   18.1282997130999988
   Mo   S    Rh   C    H 
    16    31     1     2     6
Direct
  0.0778104728438895  0.1619502661978373  0.1420994617322231
  0.3272309158489171  0.1608598151593582  0.1431933743687205
  0.5759142372515608  0.1586751858880167  0.1415874435209104
  0.8271425124842141  0.1611730326445827  0.1410180823177609
  0.0775076711799163  0.4114955110017387  0.1424328148686823
  0.3292799113577179  0.4123230104790208  0.1445577256950910
  0.5812085996155777  0.4111065548692281  0.1450017767710819
  0.8248212475425881  0.4084835422346731  0.1406618736234658
  0.0741375753794966  0.6593289573610704  0.1421092854293697
  0.3270998001949161  0.6613198668494801  0.1433690592849524
  0.5823575076412371  0.6646448373461777  0.1439469781751160
  0.8309005137577445  0.6643229864886219  0.1334008666166326
  0.0755572065488266  0.9112278135551822  0.1416933828384573
  0.3253921223516135  0.9100227389628478  0.1424850130393379
  0.5762837663959072  0.9110957982598027  0.1414718594788485
  0.8258463948334160  0.9123667534124489  0.1397812798655925
  0.1619871405248849  0.0791030163953260  0.0565291819937719
  0.1589098110251078  0.0768183457957046  0.2282293515458321
  0.4085467196632218  0.0765645772156553  0.0564558491992220
  0.4097491166598363  0.0763066220173208  0.2284318225496317
  0.6597965428699785  0.0769034024414069  0.0551112658773235
  0.6606899100085031  0.0770922922973402  0.2273490717898806
  0.9122494561625831  0.0803862682725923  0.0549284291536467
  0.9101158355354051  0.0779801699345899  0.2268018190041844
  0.1638493646003892  0.3300749690744444  0.0573322536302568
  0.1601829538253310  0.3278194929342580  0.2287901322232285
  0.4137640767602305  0.3299462837632636  0.0589871878692478
  0.4108839923294019  0.3268631133375728  0.2296177282838695
  0.6576872274233916  0.3263656585159771  0.0562990985061636
  0.6617254675804123  0.3225901948173173  0.2282546534107007
  0.9116872094051337  0.3277774577261995  0.0554166094371386
  0.9098058312631488  0.3272517217025413  0.2271810962421318
  0.1611727964580418  0.5784211769489603  0.0569924620249022
  0.1584075679842185  0.5775337928036832  0.2285746848663957
  0.4137486173965856  0.5791152914331067  0.0588738504797518
  0.4135523559159999  0.5799085720305687  0.2292423580081935
  0.6576897954922504  0.5754671503899421  0.0576002926060553
  0.9112787827969387  0.5746686434706307  0.0521411656344465
  0.8980443432918697  0.5745619116786209  0.2259283970257867
  0.1588167647071395  0.8267036568421997  0.0565263160687640
  0.1573619833582246  0.8263735569579592  0.2276172809578594
  0.4085079087409269  0.8263462928478564  0.0565847166379409
  0.4102228321896121  0.8283084620231204  0.2284080442880336
  0.6577414089016111  0.8255721801553887  0.0555951839542641
  0.6628895464632965  0.8316146012072975  0.2276968270964776
  0.9129562332689993  0.8335069343498981  0.0514634193247895
  0.9016704287544041  0.8228213712024757  0.2250510037982034
  0.7155081298057770  0.6067330271815768  0.2576991377709681
  0.7222906627121043  0.5709191297504296  0.3744315917800539
  0.6426398974071510  0.6172347672085592  0.3697732840649607
  0.6872383092029805  0.4744447153068559  0.3828763968469721
  0.8161864129054882  0.6304914516570959  0.3909383795860182
  0.6747436918857896  0.7117471839710888  0.3839643783111255
  0.5457308006409143  0.5563554292319367  0.3783548210880558
  0.6071522989209037  0.6256863603185897  0.2843468726086045
  0.6074178211763805  0.4718063915676227  0.2509390478414930
 
 -0.19499219E-02  0.25330420E-03  0.14939884E-03
 -0.18123566E-02  0.63797021E-03 -0.51500306E-03
 -0.33319916E-02  0.89204697E-02  0.22899887E-02
 -0.26550235E-02  0.14256163E-02 -0.13350425E-02
 -0.25329181E-02 -0.56365771E-03 -0.75096741E-03
 -0.42783876E-02  0.82070397E-03  0.36334561E-02
  0.37297122E-02  0.83502380E-02  0.52264491E-02
 -0.20482829E-02  0.54965635E-02  0.46148310E-02
 -0.33287060E-02  0.40610613E-02  0.63128306E-02
 -0.79647950E-02  0.27073855E-02 -0.19096471E-02
 -0.25372091E-01  0.34031039E-02  0.32605910E-01
 -0.13933759E-01 -0.97687040E-02  0.39711764E-01
 -0.36716154E-02 -0.24619699E-02  0.66842354E-02
 -0.23829071E-02  0.25118949E-02  0.70731438E-03
 -0.79437268E-02  0.83930838E-02 -0.29402952E-02
 -0.90604034E-03 -0.14487375E-02  0.87578302E-02
 -0.21325132E-02 -0.27952571E-02  0.98874522E-03
 -0.14506897E-02  0.14192764E-02  0.46755332E-03
 -0.13080497E-02  0.31103715E-02  0.52636893E-03
 -0.15451180E-02  0.24861582E-02 -0.55425229E-03
 -0.54185815E-02  0.61540798E-02 -0.23980200E-02
 -0.38576632E-02  0.60663803E-02 -0.12601682E-02
 -0.99162856E-03 -0.38536361E-02  0.21328256E-02
 -0.10680119E-02  0.26483296E-02  0.11574561E-02
 -0.29022085E-02  0.24606389E-02 -0.54454743E-03
 -0.36649340E-02 -0.10596951E-02  0.87436523E-03
  0.10360068E-02  0.42206541E-02  0.34032672E-02
 -0.32129762E-03 -0.13564368E-02  0.18917014E-03
 -0.43992914E-02  0.65579956E-02  0.27768494E-02
 -0.51418178E-03  0.15838101E-01  0.99890913E-02
 -0.43093469E-02  0.27947566E-02  0.71544281E-03
 -0.70040218E-03 -0.88057063E-03  0.26805555E-03
 -0.58947393E-02 -0.81530066E-04 -0.23299444E-03
 -0.14709583E-02  0.37789760E-03 -0.80588427E-03
 -0.12809582E-02  0.21242744E-02  0.80510382E-02
 -0.42735132E-01 -0.65994910E-02  0.12040471E-01
 -0.13099995E-01  0.12099629E-01  0.23784600E-01
 -0.11846918E-01  0.10553160E-01  0.14405304E-01
  0.17680691E-01  0.32156503E-02  0.10238588E-01
 -0.50152565E-02  0.70412368E-03  0.72712131E-02
 -0.53749397E-03  0.31008648E-02  0.43217249E-02
 -0.40413697E-02  0.26114621E-02 -0.36136927E-02
 -0.39282770E-02  0.34462958E-02 -0.12730952E-02
 -0.27783169E-02 -0.60601810E-02  0.14743389E-01
 -0.25564235E-01  0.32633709E-01  0.67831414E-02
 -0.41699678E-02 -0.14805739E-01  0.17004123E-01
 -0.44735714E-02 -0.19479072E-02  0.95525827E-02
 -0.92112259E-01 -0.11862192E-01  0.82036197E-01
  0.53685801E-01 -0.25137564E-01  0.19394715E+00
  0.15501334E+00 -0.34855880E-01  0.26482469E+00
  0.69680393E-01 -0.40403025E-01  0.41967895E-01
  0.11426515E+00 -0.25207788E-01  0.19136201E-01
  0.85447614E-01  0.13873099E-01  0.15510861E-02
  0.64827286E-01  0.87841103E-02 -0.73430411E-01
 -0.19602105E+00 -0.29523702E-02 -0.86581182E+00
 -0.34410286E-01 -0.19011271E-02  0.87333474E-01
