Generated by VASPKIT code               
   1.00000000000000     
    12.7690000533999992    0.0000000000000000    0.0000000000000000
    -6.3845000266999996   11.0582784271999994    0.0000000000000000
     0.0000000000000000    0.0000000000000000   18.1282997130999988
   Mo   S    Rh   C    H 
    16    31     1     2     6
Direct
  0.0786157279087442  0.1655089138123552  0.1442450053881176
  0.3291970750476423  0.1662799246071121  0.1453906960802425
  0.5780920958164867  0.1654764528408004  0.1454572585291074
  0.8280613358121094  0.1654086583332552  0.1443770980979420
  0.0781597930669421  0.4155020042951434  0.1438773348387325
  0.3287128400154641  0.4157376400908872  0.1434966636548534
  0.5800215751750297  0.4197335230332829  0.1476482131281064
  0.8278703026990126  0.4157541588069679  0.1449699668380495
  0.0783218384998644  0.6653925119140593  0.1438522357822127
  0.3275678550951866  0.6651011750319196  0.1428382291814032
  0.5755661513038522  0.6676501367232123  0.1384799916733016
  0.8300362627194680  0.6670992896305135  0.1429129422660354
  0.0790002844577734  0.9160962763856064  0.1444875379726773
  0.3285653860573867  0.9158427257253094  0.1446555222004254
  0.5787727876915747  0.9155315276194010  0.1440155921476373
  0.8281009276455430  0.9141409344007845  0.1426874451117582
  0.1634377260092791  0.0831994097192997  0.0588403588403175
  0.1615185036873529  0.0823798281717499  0.2307257048312917
  0.4122337660028382  0.0832755014636463  0.0592974985835099
  0.4115317386064695  0.0818813542628056  0.2313163081819049
  0.6612756742298594  0.0831668350009558  0.0587358003892615
  0.6619330167626508  0.0811757219563544  0.2305927169176823
  0.9120141806602842  0.0827380313535400  0.0582451569475460
  0.9110086552687023  0.0807084724602190  0.2293313210925738
  0.1613641638726412  0.3315923034566249  0.0580500654542716
  0.1620749581979702  0.3326995971130695  0.2297274504063448
  0.4160929388442814  0.3340346023276955  0.0599610246958180
  0.4116112928517035  0.3343938287634013  0.2310291980862366
  0.6596151249405681  0.3338758944782552  0.0606299351853283
  0.6628181498073773  0.3322204184581029  0.2315148813360747
  0.9106552660803033  0.3321673866976811  0.0585740144440073
  0.9121301429843006  0.3322242165926337  0.2303128695144486
  0.1605637051286647  0.5818115213486645  0.0575835348642342
  0.1620214530137611  0.5822459885580485  0.2296219717789791
  0.4075964402424699  0.5799876682558007  0.0545975926835088
  0.4143235726185337  0.5830175649122312  0.2275528266794886
  0.6619039932037714  0.5817435192181489  0.0594645106117611
  0.9113325696629414  0.5813467461501007  0.0573948342963058
  0.9104621351445388  0.5830077225955843  0.2293525818296372
  0.1621563103473698  0.8327919666172279  0.0585326209334069
  0.1616322430535587  0.8317931663679525  0.2302665423492218
  0.4119566464693884  0.8333403189729419  0.0581095790019609
  0.4115839789701478  0.8311313199321622  0.2295557035806421
  0.6617452560926069  0.8349327156899754  0.0551163184611535
  0.6619918153980333  0.8262761533294535  0.2286851528372376
  0.9137806414602356  0.8326089020421902  0.0570399832766686
  0.9088785930192089  0.8300976970567505  0.2295999208281381
  0.6694423940610643  0.6117386214459829  0.2498843793674803
  0.6372271901547502  0.5454706231203527  0.3602628973406487
  0.7574567326623527  0.6095801838704029  0.3999387510065369
  0.5780257283301264  0.5843305280842267  0.3700341806387792
  0.5854090627191566  0.4484581432516511  0.3732244843688726
  0.7428739900407995  0.5990250494897169  0.4602740486869717
  0.8084601282484615  0.7073166308540914  0.3884787340310116
  0.8149348754325959  0.5711904622275317  0.3851152388226385
  0.6406181812626184  0.4846058298001143  0.2782043446233604
 
  0.13194349E-02  0.66581397E-03  0.21500493E-02
  0.19066304E-02  0.80700007E-02 -0.58119556E-03
 -0.39017476E-02  0.13390080E-01  0.60457883E-03
 -0.36419358E-02  0.19324249E-02  0.21947447E-02
 -0.13957377E-02 -0.23167827E-03  0.55492051E-03
  0.11500578E-03  0.24848764E-02 -0.73307981E-02
  0.26941817E-02  0.15175777E-01 -0.49990872E-01
 -0.21276486E-02  0.15597259E-02 -0.10879169E-01
  0.95894345E-03  0.14168330E-02 -0.41894383E-02
 -0.31380529E-02  0.12851157E-02 -0.51103433E-02
 -0.24664898E-01  0.79514129E-02 -0.27544911E-01
  0.24341462E-01  0.34705661E-02 -0.42353008E-01
 -0.23083994E-03  0.45198829E-02 -0.46283791E-02
 -0.16507930E-02  0.30882570E-02  0.27549438E-03
 -0.10468542E-01  0.14063905E-01 -0.76358754E-02
 -0.54011310E-02  0.91203477E-03 -0.35936989E-02
  0.26313939E-02  0.39127189E-02  0.61855773E-03
  0.33976173E-02  0.33862787E-02  0.59533082E-03
  0.44343030E-04  0.32436816E-02  0.25313610E-02
 -0.16880775E-03  0.61399338E-02 -0.55062242E-04
 -0.42179983E-02  0.10892982E-01 -0.16523358E-02
 -0.75649767E-02  0.72849134E-02  0.18036150E-02
 -0.10460858E-02  0.28102109E-02  0.38760597E-02
 -0.19972085E-02 -0.18881790E-02  0.21563127E-04
 -0.34741259E-02 -0.19863919E-02 -0.14336055E-03
  0.30066556E-02  0.19359435E-02 -0.89677427E-03
 -0.90725492E-02 -0.60835260E-02 -0.16672554E-01
  0.31437146E-01  0.33934773E-01 -0.15433320E-01
  0.41605811E-02 -0.29501316E-02 -0.18418399E-01
 -0.36759166E-01  0.47981956E-01 -0.16050029E-01
  0.25943688E-02 -0.25458422E-02 -0.92175176E-03
 -0.70199256E-02  0.18954167E-02 -0.16125414E-02
 -0.10932652E-02 -0.11557271E-02 -0.14465362E-02
 -0.11609979E-02  0.17039953E-02 -0.16013808E-02
 -0.16334265E-01 -0.70880627E-02 -0.19700487E-01
 -0.15433084E-02  0.36348888E-02 -0.96541553E-02
 -0.70605701E-03  0.16134425E-01 -0.34065806E-01
  0.21120276E-01 -0.59781799E-02 -0.23126678E-01
 -0.39798440E-02 -0.12869314E-02 -0.11107784E-01
  0.29541028E-02  0.39624176E-02 -0.16839015E-02
 -0.14563531E-02  0.94937042E-03 -0.13357042E-02
 -0.10160682E-01  0.48948842E-02 -0.33626374E-02
 -0.11712162E-02  0.19186773E-02 -0.17630385E-02
 -0.79259558E-02  0.19033083E-01 -0.93706052E-02
 -0.39939413E-01  0.14572545E-01 -0.23112499E-01
 -0.15967223E-02  0.22517977E-01 -0.26718556E-01
  0.63233993E-03 -0.75451401E-02 -0.11036862E-01
  0.57087167E-01  0.83102127E-01 -0.19326174E+00
  0.10548656E+00 -0.16161286E+00 -0.10238822E+00
  0.27885517E-01 -0.67131567E-01 -0.22902282E-01
  0.96853855E-01 -0.12735066E+00 -0.18831352E+00
  0.66013437E-02 -0.10633600E+00  0.15596247E+00
 -0.20247222E-01 -0.41833293E-01 -0.33006811E-01
 -0.26464228E-01 -0.64326948E-01 -0.50765646E-01
  0.56522103E-01 -0.18391464E-02  0.13480230E-01
 -0.19207542E+00  0.23330961E+00  0.82091245E+00
