POSCARMoS21PdDoped                      
   1.00000000000000     
    12.7690000533999992    0.0000000000000000    0.0000000000000000
    -6.3845000266999996   11.0582784271999994    0.0000000000000000
     0.0000000000000000    0.0000000000000000   18.1282997130999988
   Mo   S    Pd   C    H 
    16    31     1     2     2
Direct
  0.0857668914255172  0.1698023871209796  0.1403321666273490
  0.3358038054587217  0.1702284049066748  0.1400887443979475
  0.5857823606950955  0.1705539203579013  0.1405515610035977
  0.8353076690485831  0.1696858935493122  0.1405067184176001
  0.0858466896567466  0.4201921290697728  0.1405297114218831
  0.3372599866313798  0.4205947898504535  0.1397878545997053
  0.5862333024144122  0.4206114014265729  0.1371877074465407
  0.8347066133060835  0.4208072505060687  0.1389492645571030
  0.0849739633756348  0.6696996094860005  0.1405898909110599
  0.3361437152051241  0.6699218504134812  0.1411453753281894
  0.5872628789338598  0.6682245254509802  0.1405342018517949
  0.8349289889600972  0.6692674049553308  0.1372645329881780
  0.0853064252872792  0.9197128200057426  0.1401563618377683
  0.3356955717802677  0.9198357694909718  0.1410923531358450
  0.5856323052345941  0.9194002489428570  0.1411731760389377
  0.8349885661371835  0.9183130435086716  0.1398765403245922
  0.1688821899200336  0.0865001518631818  0.0543555972129545
  0.1690620226496432  0.0866355412520161  0.2261969382285818
  0.4189784261545235  0.0861510826261333  0.0548906686573427
  0.4191617012902925  0.0874220454132467  0.2265178469424022
  0.6683322352134304  0.0858314537528774  0.0550282987108935
  0.6692046133678942  0.0872033902615880  0.2267159818916067
  0.9186398898567043  0.0862652682850669  0.0545728134565120
  0.9186502307558871  0.0856417877072200  0.2259463594332735
  0.1691630766337739  0.3368195207496894  0.0545464442422271
  0.1700941857707108  0.3369789425279434  0.2259402925980493
  0.4186428375789860  0.3359302786522731  0.0527196379536602
  0.4231851245416958  0.3401996465023444  0.2246491735632554
  0.6679873442648944  0.3355308865135459  0.0525613537461373
  0.6692883248215057  0.3423150236764026  0.2250215831438226
  0.9191320818330190  0.3363220348740579  0.0544744417524007
  0.9181606176245355  0.3373465514622162  0.2256146985991655
  0.1695923898826916  0.5870744881759263  0.0550374177015589
  0.1684549194145806  0.5863681522047490  0.2267127747501173
  0.4212850855434166  0.5884495294002557  0.0546369628436384
  0.4218852160966198  0.5856469740610726  0.2259084759554870
  0.6686514321358266  0.5869765729936022  0.0536684203361894
  0.9199414379234340  0.5874901395434488  0.0526041881899198
  0.9132276332304163  0.5861816520849393  0.2250481947680006
  0.1692873851154482  0.8364301498929301  0.0549365485634455
  0.1682063867338262  0.8364228970376976  0.2265367682584394
  0.4191456579803559  0.8363819498900475  0.0554448087032030
  0.4191692018904558  0.8364407735859326  0.2272645677218149
  0.6671916561599810  0.8343002627896736  0.0547324653475135
  0.6698550416263139  0.8335468263744815  0.2259457758770438
  0.9196091979826488  0.8368838985519257  0.0528450740809135
  0.9152968716612258  0.8323259729960661  0.2247629632493935
  0.6789364969636180  0.5763498369721611  0.2527968022375179
  0.6267318138913460  0.6271721143119227  0.3613035011681115
  0.6799796480403943  0.5707268783540854  0.3740506887631623
  0.5791877909596918  0.6767590567207938  0.3636583240427589
  0.7221400628717983  0.5246997964263919  0.3991684915488323
 
  0.00000000E+00  0.00000000E+00  0.00000000E+00
  0.00000000E+00  0.00000000E+00  0.00000000E+00
  0.00000000E+00  0.00000000E+00  0.00000000E+00
  0.00000000E+00  0.00000000E+00  0.00000000E+00
  0.00000000E+00  0.00000000E+00  0.00000000E+00
  0.00000000E+00  0.00000000E+00  0.00000000E+00
  0.00000000E+00  0.00000000E+00  0.00000000E+00
  0.00000000E+00  0.00000000E+00  0.00000000E+00
  0.00000000E+00  0.00000000E+00  0.00000000E+00
  0.00000000E+00  0.00000000E+00  0.00000000E+00
  0.00000000E+00  0.00000000E+00  0.00000000E+00
  0.00000000E+00  0.00000000E+00  0.00000000E+00
  0.00000000E+00  0.00000000E+00  0.00000000E+00
  0.00000000E+00  0.00000000E+00  0.00000000E+00
  0.00000000E+00  0.00000000E+00  0.00000000E+00
  0.00000000E+00  0.00000000E+00  0.00000000E+00
  0.00000000E+00  0.00000000E+00  0.00000000E+00
  0.00000000E+00  0.00000000E+00  0.00000000E+00
  0.00000000E+00  0.00000000E+00  0.00000000E+00
  0.00000000E+00  0.00000000E+00  0.00000000E+00
  0.00000000E+00  0.00000000E+00  0.00000000E+00
  0.00000000E+00  0.00000000E+00  0.00000000E+00
  0.00000000E+00  0.00000000E+00  0.00000000E+00
  0.00000000E+00  0.00000000E+00  0.00000000E+00
  0.00000000E+00  0.00000000E+00  0.00000000E+00
  0.00000000E+00  0.00000000E+00  0.00000000E+00
  0.00000000E+00  0.00000000E+00  0.00000000E+00
  0.00000000E+00  0.00000000E+00  0.00000000E+00
  0.00000000E+00  0.00000000E+00  0.00000000E+00
  0.00000000E+00  0.00000000E+00  0.00000000E+00
  0.00000000E+00  0.00000000E+00  0.00000000E+00
  0.00000000E+00  0.00000000E+00  0.00000000E+00
  0.00000000E+00  0.00000000E+00  0.00000000E+00
  0.00000000E+00  0.00000000E+00  0.00000000E+00
  0.00000000E+00  0.00000000E+00  0.00000000E+00
  0.00000000E+00  0.00000000E+00  0.00000000E+00
  0.00000000E+00  0.00000000E+00  0.00000000E+00
  0.00000000E+00  0.00000000E+00  0.00000000E+00
  0.00000000E+00  0.00000000E+00  0.00000000E+00
  0.00000000E+00  0.00000000E+00  0.00000000E+00
  0.00000000E+00  0.00000000E+00  0.00000000E+00
  0.00000000E+00  0.00000000E+00  0.00000000E+00
  0.00000000E+00  0.00000000E+00  0.00000000E+00
  0.00000000E+00  0.00000000E+00  0.00000000E+00
  0.00000000E+00  0.00000000E+00  0.00000000E+00
  0.00000000E+00  0.00000000E+00  0.00000000E+00
  0.00000000E+00  0.00000000E+00  0.00000000E+00
  0.00000000E+00  0.00000000E+00  0.00000000E+00
  0.00000000E+00  0.00000000E+00  0.00000000E+00
  0.00000000E+00  0.00000000E+00  0.00000000E+00
  0.00000000E+00  0.00000000E+00  0.00000000E+00
  0.00000000E+00  0.00000000E+00  0.00000000E+00
