Generated by VASPKIT code               
   1.00000000000000     
    12.7690000533999992    0.0000000000000000    0.0000000000000000
    -6.3845000266999996   11.0582784271999994    0.0000000000000000
     0.0000000000000000    0.0000000000000000   18.1282997130999988
   Mo   S    Pd   C    H 
    16    31     1     2     6
Direct
  0.0834829059839052  0.1679774305232436  0.1446238315626924
  0.3325962602663221  0.1669283629578443  0.1431760637204492
  0.5839880843936374  0.1681176750967151  0.1446666520247880
  0.8335259896299427  0.1683019095494764  0.1455849980704572
  0.0836413642117423  0.4182022664561082  0.1459590780976530
  0.3335320974753248  0.4170478029510983  0.1443845656122771
  0.5784245895876670  0.4130258365755067  0.1409507664920194
  0.8330887292368345  0.4190512056020923  0.1459868269684825
  0.0840323113908613  0.6685284521901155  0.1468323439008678
  0.3352613239157052  0.6677225842446626  0.1471629799986339
  0.5844614981746646  0.6645651784254961  0.1478401211365194
  0.8340997082176576  0.6709381868891973  0.1492193446547097
  0.0855980475988225  0.9191863143962827  0.1448643488214950
  0.3342571210103742  0.9174835823860668  0.1455001317193577
  0.5840266632125906  0.9182708628107356  0.1461519552833322
  0.8345938005487357  0.9184034173514170  0.1463592479598976
  0.1656350146915615  0.0838441101163020  0.0578948115631447
  0.1686286815755606  0.0862644297612361  0.2302877172403417
  0.4174238250979768  0.0830763844237600  0.0586481179634638
  0.4170467107719755  0.0854091526829095  0.2301934265545509
  0.6671494141844624  0.0838931174131283  0.0594408282133496
  0.6672127681430886  0.0859967232055280  0.2315552007500069
  0.9158415918463318  0.0839582446822181  0.0595460117327487
  0.9177844566518696  0.0859782160484120  0.2314523812730765
  0.1660706503120838  0.3352685800206709  0.0590177202187736
  0.1672278582227847  0.3342093389674209  0.2307803092666267
  0.4136661364038128  0.3324920073922317  0.0561672239720516
  0.4165686970531099  0.3341121202041580  0.2291999171664933
  0.6685807161665401  0.3341207255929526  0.0578449416158368
  0.6647976084417695  0.3380863778074042  0.2299147250480024
  0.9169155167558839  0.3359270996795206  0.0601820716946263
  0.9165363043912137  0.3349948936512992  0.2315768155723182
  0.1682801828383683  0.5857838496885160  0.0610195008243613
  0.1674565650865255  0.5842765604300658  0.2324465387236906
  0.4210006916136649  0.5869966742793770  0.0607362311259038
  0.4187978279631227  0.5808265086144986  0.2325491340534772
  0.6688617151059041  0.5854653747260149  0.0626611357147352
  0.9160151891619733  0.5872000129909695  0.0616690404034549
  0.9159687345462202  0.5848760704821293  0.2327816165487399
  0.1674463722070028  0.8333504377439738  0.0597022177445527
  0.1684143250269140  0.8359940548842573  0.2317493025583104
  0.4177299191719171  0.8331413231583263  0.0604185129558128
  0.4177800799811233  0.8351995991741882  0.2323194456513737
  0.6659062284969413  0.8312994155503943  0.0613470129522909
  0.6670061822784811  0.8350686057626089  0.2318307466080545
  0.9161609473530554  0.8329097840830096  0.0607942914370377
  0.9246397560361046  0.8426447430354499  0.2327366749093864
  0.6560282580726313  0.5635309794144761  0.2610363085487521
  0.7179798238545224  0.6403693234318621  0.3658366986858356
  0.6182244463498214  0.5239709142237069  0.3957054572339730
  0.8107912329626841  0.6591836317092432  0.3737223615162969
  0.7091183955130723  0.7207311332902492  0.3725219083748731
  0.6500325152436022  0.4704659364145526  0.4257907534176250
  0.5596878405108637  0.4591024789657056  0.3497066597782410
  0.7502626815386993  0.6969673197163696  0.2374947959813380
  0.5510914382309998  0.5341580690048124  0.4281148551511861
 
  0.00000000E+00  0.00000000E+00  0.00000000E+00
  0.00000000E+00  0.00000000E+00  0.00000000E+00
  0.00000000E+00  0.00000000E+00  0.00000000E+00
  0.00000000E+00  0.00000000E+00  0.00000000E+00
  0.00000000E+00  0.00000000E+00  0.00000000E+00
  0.00000000E+00  0.00000000E+00  0.00000000E+00
  0.00000000E+00  0.00000000E+00  0.00000000E+00
  0.00000000E+00  0.00000000E+00  0.00000000E+00
  0.00000000E+00  0.00000000E+00  0.00000000E+00
  0.00000000E+00  0.00000000E+00  0.00000000E+00
  0.00000000E+00  0.00000000E+00  0.00000000E+00
  0.00000000E+00  0.00000000E+00  0.00000000E+00
  0.00000000E+00  0.00000000E+00  0.00000000E+00
  0.00000000E+00  0.00000000E+00  0.00000000E+00
  0.00000000E+00  0.00000000E+00  0.00000000E+00
  0.00000000E+00  0.00000000E+00  0.00000000E+00
  0.00000000E+00  0.00000000E+00  0.00000000E+00
  0.00000000E+00  0.00000000E+00  0.00000000E+00
  0.00000000E+00  0.00000000E+00  0.00000000E+00
  0.00000000E+00  0.00000000E+00  0.00000000E+00
  0.00000000E+00  0.00000000E+00  0.00000000E+00
  0.00000000E+00  0.00000000E+00  0.00000000E+00
  0.00000000E+00  0.00000000E+00  0.00000000E+00
  0.00000000E+00  0.00000000E+00  0.00000000E+00
  0.00000000E+00  0.00000000E+00  0.00000000E+00
  0.00000000E+00  0.00000000E+00  0.00000000E+00
  0.00000000E+00  0.00000000E+00  0.00000000E+00
  0.00000000E+00  0.00000000E+00  0.00000000E+00
  0.00000000E+00  0.00000000E+00  0.00000000E+00
  0.00000000E+00  0.00000000E+00  0.00000000E+00
  0.00000000E+00  0.00000000E+00  0.00000000E+00
  0.00000000E+00  0.00000000E+00  0.00000000E+00
  0.00000000E+00  0.00000000E+00  0.00000000E+00
  0.00000000E+00  0.00000000E+00  0.00000000E+00
  0.00000000E+00  0.00000000E+00  0.00000000E+00
  0.00000000E+00  0.00000000E+00  0.00000000E+00
  0.00000000E+00  0.00000000E+00  0.00000000E+00
  0.00000000E+00  0.00000000E+00  0.00000000E+00
  0.00000000E+00  0.00000000E+00  0.00000000E+00
  0.00000000E+00  0.00000000E+00  0.00000000E+00
  0.00000000E+00  0.00000000E+00  0.00000000E+00
  0.00000000E+00  0.00000000E+00  0.00000000E+00
  0.00000000E+00  0.00000000E+00  0.00000000E+00
  0.00000000E+00  0.00000000E+00  0.00000000E+00
  0.00000000E+00  0.00000000E+00  0.00000000E+00
  0.00000000E+00  0.00000000E+00  0.00000000E+00
  0.00000000E+00  0.00000000E+00  0.00000000E+00
  0.00000000E+00  0.00000000E+00  0.00000000E+00
  0.00000000E+00  0.00000000E+00  0.00000000E+00
  0.00000000E+00  0.00000000E+00  0.00000000E+00
  0.00000000E+00  0.00000000E+00  0.00000000E+00
  0.00000000E+00  0.00000000E+00  0.00000000E+00
  0.00000000E+00  0.00000000E+00  0.00000000E+00
  0.00000000E+00  0.00000000E+00  0.00000000E+00
  0.00000000E+00  0.00000000E+00  0.00000000E+00
  0.00000000E+00  0.00000000E+00  0.00000000E+00
