POSCARMoS21Pd_1                         
   1.00000000000000     
    12.7690000533999992    0.0000000000000000    0.0000000000000000
    -6.3845000266999996   11.0582784271999994    0.0000000000000000
     0.0000000000000000    0.0000000000000000   18.1282997130999988
   Mo   S    Pd   C    H 
    16    31     1     2     4
Direct
  0.0811857645399057  0.1666583732641610  0.1422101316329197
  0.3315710716641495  0.1673009553272169  0.1427810853938912
  0.5809767420606892  0.1671894141970910  0.1426627803533554
  0.8307815554192717  0.1667913085098880  0.1421651710389397
  0.0812668217397781  0.4171171026256999  0.1421146052251012
  0.3327817234465030  0.4172509590464081  0.1406238719547108
  0.5816052526813753  0.4192100111159089  0.1408760506007404
  0.8302599417347198  0.4176102382651276  0.1419334820354677
  0.0808752233809707  0.6669102474558364  0.1425042014823469
  0.3316101297299393  0.6663844007991138  0.1419054305189583
  0.5810721723218606  0.6667555027559696  0.1364994189970128
  0.8282709969045657  0.6659318571685575  0.1415437963557035
  0.0805762475036893  0.9162158320872078  0.1428136284076105
  0.3310658099246068  0.9166860861387168  0.1430200483500314
  0.5814209624914801  0.9166084344053097  0.1417561999643547
  0.8306318170838013  0.9153832858573522  0.1408523703371379
  0.1647087856444232  0.0829883074905279  0.0568922406275677
  0.1641774349478015  0.0837532259839106  0.2285562632747715
  0.4141970752289514  0.0833123092013073  0.0571392415415709
  0.4145753317883315  0.0838412867135421  0.2288843453271306
  0.6640933641640647  0.0840282964739895  0.0564086506312670
  0.6644262933625809  0.0829972246770976  0.2281908108864535
  0.9147335243047130  0.0839241622118698  0.0561053015542371
  0.9135456096528716  0.0820855026528496  0.2274402927116077
  0.1639769629938742  0.3330346751050245  0.0560325766651531
  0.1660165671692414  0.3343860053293864  0.2273098374852222
  0.4158254922881006  0.3328090541923786  0.0552569564995229
  0.4185680071575578  0.3384430524202054  0.2273860507288261
  0.6632892316751196  0.3334696733281313  0.0559399461578691
  0.6641331693286845  0.3372626315778439  0.2273032052260592
  0.9141598735263600  0.3338145301965212  0.0563883116455161
  0.9140808609312442  0.3339567342229637  0.2278370802913959
  0.1642815767406178  0.5838363197759069  0.0563796720759507
  0.1649193590096245  0.5833399717409878  0.2281493012566440
  0.4128911013420877  0.5833180774166761  0.0532313972442073
  0.4211904773029702  0.5832432498257673  0.2257248091645597
  0.6651934201943782  0.5829518790903920  0.0548073262406826
  0.9140193844221920  0.5848404341804843  0.0561460981088783
  0.9111960388387678  0.5836113012388474  0.2270867408067634
  0.1645270665733576  0.8336291839896174  0.0570593555984382
  0.1639557752098611  0.8330682484197902  0.2289315782459411
  0.4140783437436030  0.8336001729285423  0.0565346340129221
  0.4150574437396204  0.8327506874225136  0.2281392968923465
  0.6648011230498073  0.8354147760982072  0.0532975750090677
  0.6643708935006917  0.8276856930392962  0.2254779402870895
  0.9146610982831155  0.8317098194852307  0.0557324835833659
  0.9098896953099395  0.8299475199990413  0.2275403936702148
  0.6493498823093382  0.5885510892132164  0.2535333789457598
  0.7431827684351018  0.5750617349136967  0.3671433766805870
  0.6429662243413427  0.5851553683002768  0.3788124413578016
  0.7377731831790839  0.4870692526466501  0.3653769031948985
  0.8335941473373333  0.6545240397422488  0.3661569678946417
  0.6508526089839588  0.6732414760201342  0.3893206847562773
  0.5544087722896734  0.5055047869221068  0.3887401745901964
 
  0.00000000E+00  0.00000000E+00  0.00000000E+00
  0.00000000E+00  0.00000000E+00  0.00000000E+00
  0.00000000E+00  0.00000000E+00  0.00000000E+00
  0.00000000E+00  0.00000000E+00  0.00000000E+00
  0.00000000E+00  0.00000000E+00  0.00000000E+00
  0.00000000E+00  0.00000000E+00  0.00000000E+00
  0.00000000E+00  0.00000000E+00  0.00000000E+00
  0.00000000E+00  0.00000000E+00  0.00000000E+00
  0.00000000E+00  0.00000000E+00  0.00000000E+00
  0.00000000E+00  0.00000000E+00  0.00000000E+00
  0.00000000E+00  0.00000000E+00  0.00000000E+00
  0.00000000E+00  0.00000000E+00  0.00000000E+00
  0.00000000E+00  0.00000000E+00  0.00000000E+00
  0.00000000E+00  0.00000000E+00  0.00000000E+00
  0.00000000E+00  0.00000000E+00  0.00000000E+00
  0.00000000E+00  0.00000000E+00  0.00000000E+00
  0.00000000E+00  0.00000000E+00  0.00000000E+00
  0.00000000E+00  0.00000000E+00  0.00000000E+00
  0.00000000E+00  0.00000000E+00  0.00000000E+00
  0.00000000E+00  0.00000000E+00  0.00000000E+00
  0.00000000E+00  0.00000000E+00  0.00000000E+00
  0.00000000E+00  0.00000000E+00  0.00000000E+00
  0.00000000E+00  0.00000000E+00  0.00000000E+00
  0.00000000E+00  0.00000000E+00  0.00000000E+00
  0.00000000E+00  0.00000000E+00  0.00000000E+00
  0.00000000E+00  0.00000000E+00  0.00000000E+00
  0.00000000E+00  0.00000000E+00  0.00000000E+00
  0.00000000E+00  0.00000000E+00  0.00000000E+00
  0.00000000E+00  0.00000000E+00  0.00000000E+00
  0.00000000E+00  0.00000000E+00  0.00000000E+00
  0.00000000E+00  0.00000000E+00  0.00000000E+00
  0.00000000E+00  0.00000000E+00  0.00000000E+00
  0.00000000E+00  0.00000000E+00  0.00000000E+00
  0.00000000E+00  0.00000000E+00  0.00000000E+00
  0.00000000E+00  0.00000000E+00  0.00000000E+00
  0.00000000E+00  0.00000000E+00  0.00000000E+00
  0.00000000E+00  0.00000000E+00  0.00000000E+00
  0.00000000E+00  0.00000000E+00  0.00000000E+00
  0.00000000E+00  0.00000000E+00  0.00000000E+00
  0.00000000E+00  0.00000000E+00  0.00000000E+00
  0.00000000E+00  0.00000000E+00  0.00000000E+00
  0.00000000E+00  0.00000000E+00  0.00000000E+00
  0.00000000E+00  0.00000000E+00  0.00000000E+00
  0.00000000E+00  0.00000000E+00  0.00000000E+00
  0.00000000E+00  0.00000000E+00  0.00000000E+00
  0.00000000E+00  0.00000000E+00  0.00000000E+00
  0.00000000E+00  0.00000000E+00  0.00000000E+00
  0.00000000E+00  0.00000000E+00  0.00000000E+00
  0.00000000E+00  0.00000000E+00  0.00000000E+00
  0.00000000E+00  0.00000000E+00  0.00000000E+00
  0.00000000E+00  0.00000000E+00  0.00000000E+00
  0.00000000E+00  0.00000000E+00  0.00000000E+00
  0.00000000E+00  0.00000000E+00  0.00000000E+00
  0.00000000E+00  0.00000000E+00  0.00000000E+00
