POSCAR1Pd_                              
1.0
       12.7690000534         0.0000000000         0.0000000000
       -6.3845000267        11.0582784272         0.0000000000
        0.0000000000         0.0000000000        18.1282997131
   Mo    S   Pd    C    H
   16   31    1    2    4
Direct
     0.086998276         0.169941127         0.143068969
     0.337318897         0.169995144         0.144021198
     0.586616337         0.169234753         0.143731356
     0.836893976         0.170127839         0.142888591
     0.087111004         0.420276523         0.143043518
     0.337982148         0.419689566         0.141452432
     0.588100076         0.422073454         0.145689830
     0.836320817         0.420102537         0.144511878
     0.087399654         0.670124352         0.143923655
     0.336945683         0.669410169         0.141676843
     0.585087240         0.674499810         0.133301660
     0.833342671         0.668875456         0.145400077
     0.085918859         0.918881834         0.144290760
     0.336798042         0.919778287         0.143363982
     0.587768912         0.920602560         0.141392604
     0.836841345         0.919452667         0.141213551
     0.170397520         0.085670024         0.058131006
     0.169704273         0.086647496         0.229674131
     0.420049429         0.086794764         0.057834797
     0.420033067         0.085899979         0.229756981
     0.670545876         0.088430144         0.056667760
     0.670369089         0.084884636         0.228741094
     0.921323299         0.087868668         0.056635957
     0.919623911         0.085500315         0.228178933
     0.169595748         0.335959017         0.056831636
     0.171738848         0.337401152         0.228241041
     0.423974305         0.336948067         0.057773739
     0.420883864         0.338641554         0.229362980
     0.669109106         0.337829977         0.059074119
     0.669467866         0.333677948         0.230437562
     0.919633627         0.337752342         0.057778861
     0.920742631         0.336359710         0.229394495
     0.168952435         0.586685061         0.056957807
     0.172280893         0.586766720         0.228915006
     0.414886981         0.583864391         0.052370835
     0.428058684         0.587749064         0.224936709
     0.670897603         0.585367918         0.057720128
     0.918690681         0.587779522         0.059230097
     0.921922207         0.587448359         0.230168894
     0.169436276         0.836443007         0.058050375
     0.170708716         0.836620033         0.229908064
     0.419545472         0.837066233         0.056397755
     0.421391904         0.835887313         0.227754399
     0.673194230         0.843015075         0.051782899
     0.669872820         0.830935836         0.225086808
     0.919569969         0.832853138         0.057664391
     0.916212261         0.835269272         0.229639143
     0.649730921         0.600695193         0.256145805
     0.589321554         0.521981835         0.408962071
     0.672563314         0.544500589         0.357296824
     0.599441648         0.498648942         0.465867937
     0.752453268         0.536059201         0.368421227
     0.506673872         0.525467813         0.398151577
     0.719874322         0.535821676         0.226262808
