POSCARxPz1                              
   1.00000000000000     
    12.7690000533999992    0.0000000000000000    0.0000000000000000
    -6.3845000266999996   11.0582784271999994    0.0000000000000000
     0.0000000000000000    0.0000000000000000   18.1282997130999988
   Mo   S    Pd   C    H 
    16    31     1     2     6
Direct
  0.0831442348260367  0.1666908642206835  0.1424094626818189
  0.3321839189852511  0.1653686445539080  0.1429283721158257
  0.5830237240603822  0.1671151814720275  0.1444820022601405
  0.8330964444161921  0.1666232891400412  0.1434975147610942
  0.0829510899637356  0.4166966860488444  0.1427494885821332
  0.3324969171127350  0.4159392101985304  0.1438415008166558
  0.5805889840510119  0.4172336692778629  0.1460528414897411
  0.8330426880007735  0.4175427780007794  0.1428344565545601
  0.0836790426449241  0.6665769232003811  0.1412641246844260
  0.3324829220307990  0.6666183097113816  0.1434276384328044
  0.5842588340806714  0.6645325839383176  0.1459888274916139
  0.8386913635280990  0.6710346641958509  0.1381899341072952
  0.0840878361539765  0.9176588486695820  0.1408448535026494
  0.3338462638067696  0.9167101825535795  0.1429728654371516
  0.5833710620036072  0.9152172172580535  0.1448126091632318
  0.8340624146659366  0.9164257703244232  0.1423150187827176
  0.1675118425511997  0.0848268985988057  0.0558016226440401
  0.1648035274292283  0.0816285535718890  0.2281746865899024
  0.4180030629790821  0.0838584783644194  0.0575189803353169
  0.4155684539941120  0.0824572845092675  0.2294680335609485
  0.6653704276576562  0.0822548915256789  0.0587125501243762
  0.6670689932604787  0.0833214753612381  0.2300242607444218
  0.9158271517003911  0.0836948254345984  0.0568078300308059
  0.9168298981539493  0.0829137949424705  0.2285379075821794
  0.1670882078114602  0.3339479135849786  0.0569952508622151
  0.1651381048204854  0.3326116326236885  0.2289894778151904
  0.4179386406025927  0.3340837182410610  0.0582968625395281
  0.4107127113694418  0.3278738837082855  0.2300938851546022
  0.6640711927497094  0.3343548247589396  0.0587664385193492
  0.6674142063236701  0.3363945971787459  0.2298487373109737
  0.9154490903462715  0.3328199879233793  0.0572603509450929
  0.9163738378014941  0.3339876576528411  0.2287967198130048
  0.1675128341107452  0.5829595411158266  0.0563307803163156
  0.1647585542224803  0.5832271697495415  0.2285813080277350
  0.4191000768301336  0.5843604497370478  0.0588282813799168
  0.4133790915065916  0.5832603471348179  0.2299297944310439
  0.6657527792290665  0.5824336211095087  0.0599409210859747
  0.9175979459528634  0.5818376637415597  0.0546196900272093
  0.9149613397104375  0.5854130762410463  0.2266842911954683
  0.1685201021588227  0.8339344894494118  0.0558631234128413
  0.1656867233312482  0.8330311490071338  0.2274303941920053
  0.4181664473622035  0.8333933298651814  0.0579009083447630
  0.4157337798317684  0.8329116748589414  0.2297660415883342
  0.6641672500652689  0.8294566233261094  0.0585943018433142
  0.6696539117762867  0.8310997770916799  0.2301970037485646
  0.9184962464378330  0.8367179042912340  0.0539400256548817
  0.9162675814381060  0.8320670466390538  0.2268568636553852
  0.6880860292125419  0.5927653283749947  0.2604106016184389
  0.6062940615003640  0.5292331450943450  0.3640018429907670
  0.7330726293438445  0.5999442671836448  0.3909042666607689
  0.5453827683870642  0.5638819189982271  0.3766091832532226
  0.5623414819752739  0.4306352238531801  0.3660116757133451
  0.7707470660518965  0.5444742109903302  0.4109248351573953
  0.7495301500885532  0.6720676518725313  0.4303047219142897
  0.8002832863414255  0.6561513133223755  0.3441427424636387
  0.5608902032531162  0.5275020862077042  0.2153766858885575
 
  0.00000000E+00  0.00000000E+00  0.00000000E+00
  0.00000000E+00  0.00000000E+00  0.00000000E+00
  0.00000000E+00  0.00000000E+00  0.00000000E+00
  0.00000000E+00  0.00000000E+00  0.00000000E+00
  0.00000000E+00  0.00000000E+00  0.00000000E+00
  0.00000000E+00  0.00000000E+00  0.00000000E+00
  0.00000000E+00  0.00000000E+00  0.00000000E+00
  0.00000000E+00  0.00000000E+00  0.00000000E+00
  0.00000000E+00  0.00000000E+00  0.00000000E+00
  0.00000000E+00  0.00000000E+00  0.00000000E+00
  0.00000000E+00  0.00000000E+00  0.00000000E+00
  0.00000000E+00  0.00000000E+00  0.00000000E+00
  0.00000000E+00  0.00000000E+00  0.00000000E+00
  0.00000000E+00  0.00000000E+00  0.00000000E+00
  0.00000000E+00  0.00000000E+00  0.00000000E+00
  0.00000000E+00  0.00000000E+00  0.00000000E+00
  0.00000000E+00  0.00000000E+00  0.00000000E+00
  0.00000000E+00  0.00000000E+00  0.00000000E+00
  0.00000000E+00  0.00000000E+00  0.00000000E+00
  0.00000000E+00  0.00000000E+00  0.00000000E+00
  0.00000000E+00  0.00000000E+00  0.00000000E+00
  0.00000000E+00  0.00000000E+00  0.00000000E+00
  0.00000000E+00  0.00000000E+00  0.00000000E+00
  0.00000000E+00  0.00000000E+00  0.00000000E+00
  0.00000000E+00  0.00000000E+00  0.00000000E+00
  0.00000000E+00  0.00000000E+00  0.00000000E+00
  0.00000000E+00  0.00000000E+00  0.00000000E+00
  0.00000000E+00  0.00000000E+00  0.00000000E+00
  0.00000000E+00  0.00000000E+00  0.00000000E+00
  0.00000000E+00  0.00000000E+00  0.00000000E+00
  0.00000000E+00  0.00000000E+00  0.00000000E+00
  0.00000000E+00  0.00000000E+00  0.00000000E+00
  0.00000000E+00  0.00000000E+00  0.00000000E+00
  0.00000000E+00  0.00000000E+00  0.00000000E+00
  0.00000000E+00  0.00000000E+00  0.00000000E+00
  0.00000000E+00  0.00000000E+00  0.00000000E+00
  0.00000000E+00  0.00000000E+00  0.00000000E+00
  0.00000000E+00  0.00000000E+00  0.00000000E+00
  0.00000000E+00  0.00000000E+00  0.00000000E+00
  0.00000000E+00  0.00000000E+00  0.00000000E+00
  0.00000000E+00  0.00000000E+00  0.00000000E+00
  0.00000000E+00  0.00000000E+00  0.00000000E+00
  0.00000000E+00  0.00000000E+00  0.00000000E+00
  0.00000000E+00  0.00000000E+00  0.00000000E+00
  0.00000000E+00  0.00000000E+00  0.00000000E+00
  0.00000000E+00  0.00000000E+00  0.00000000E+00
  0.00000000E+00  0.00000000E+00  0.00000000E+00
  0.00000000E+00  0.00000000E+00  0.00000000E+00
  0.00000000E+00  0.00000000E+00  0.00000000E+00
  0.00000000E+00  0.00000000E+00  0.00000000E+00
  0.00000000E+00  0.00000000E+00  0.00000000E+00
  0.00000000E+00  0.00000000E+00  0.00000000E+00
  0.00000000E+00  0.00000000E+00  0.00000000E+00
  0.00000000E+00  0.00000000E+00  0.00000000E+00
  0.00000000E+00  0.00000000E+00  0.00000000E+00
  0.00000000E+00  0.00000000E+00  0.00000000E+00
