Generated by VASPKIT code               
   1.00000000000000     
    12.7690000533999992    0.0000000000000000    0.0000000000000000
    -6.3845000266999996   11.0582784271999994    0.0000000000000000
     0.0000000000000000    0.0000000000000000   18.1282997130999988
   Mo   S    Pd   C    H 
    16    31     1     2     6
Direct
  0.0788865037668366  0.1676900505481120  0.1415387637576130
  0.3299653575935498  0.1697256929536292  0.1425024766076198
  0.5797052329339177  0.1698016668562311  0.1423823162840416
  0.8290343811787005  0.1677950023016465  0.1414938873995515
  0.0791847233191845  0.4180480878062769  0.1397142390593024
  0.3289158432785478  0.4189889515034759  0.1419881563200198
  0.5827807223791819  0.4223761261203151  0.1437771513446017
  0.8302806828304037  0.4190105233519200  0.1403218274931548
  0.0806650214590990  0.6687799760261606  0.1381859288123884
  0.3275183018842584  0.6695541347676532  0.1392476238155503
  0.5760142979787649  0.6660835684194106  0.1453179958956367
  0.8319958863625958  0.6662104870607536  0.1412911972456317
  0.0791285004263639  0.9184804328805739  0.1412472051612500
  0.3295876873988953  0.9198832004501811  0.1409020714755770
  0.5784255297057662  0.9181913757545916  0.1421147159343120
  0.8278945058287219  0.9163816108245507  0.1427743690140808
  0.1636169237755403  0.0858222929841822  0.0559478843733631
  0.1620564822869049  0.0846949290281725  0.2277809572813712
  0.4137892349902077  0.0879248414489243  0.0561747394152621
  0.4126577923455277  0.0854128908887498  0.2279938951371649
  0.6618743064665349  0.0850385709166555  0.0562418063800374
  0.6628631244558211  0.0855253275106343  0.2278436800223960
  0.9112357558422728  0.0825594546482467  0.0562604810033348
  0.9123559448746317  0.0846487462026479  0.2276907053747460
  0.1632152122516954  0.3338717453406372  0.0550824306408140
  0.1610498607979263  0.3345056581012550  0.2268695675980572
  0.4166433563569090  0.3377565930409088  0.0572289344649050
  0.4145788510304621  0.3381420094702174  0.2280563655377867
  0.6606536675687278  0.3367618735765591  0.0563226158479985
  0.6660768837112674  0.3392030375223102  0.2279520221606435
  0.9115845567641453  0.3332957988686114  0.0545232498546397
  0.9134231763544221  0.3354453558883735  0.2263244400058363
  0.1625553288948878  0.5840493537264780  0.0525620630837637
  0.1612028498915370  0.5852814393037716  0.2250552636954410
  0.4145815241786996  0.5859065366399092  0.0563250002022329
  0.4014102941284260  0.5837575826451077  0.2277235075271374
  0.6627406339379561  0.5866576248626009  0.0602131646225594
  0.9126206196972588  0.5849689248871099  0.0533139124078722
  0.9168084555357170  0.5846000122981038  0.2250847437927702
  0.1636339173762187  0.8379233681043550  0.0542576627161650
  0.1622480726943796  0.8340667178565853  0.2260197338483660
  0.4139308783648837  0.8377147729673465  0.0547268062706476
  0.4106748961393855  0.8349459654619690  0.2267304117822234
  0.6602764254146301  0.8309176393025367  0.0579647760635331
  0.6616021115589374  0.8342311436259664  0.2288206181276650
  0.9114292735856993  0.8341182379498674  0.0559728777196728
  0.9102623701680495  0.8308547880875007  0.2274491669890647
  0.6747544745144167  0.5924237115386370  0.2599497149980758
  0.7755801613733346  0.5873511414076198  0.3612989698529587
  0.6707599832574205  0.5849738218508367  0.3883521484919098
  0.7797974799142133  0.5042348036737447  0.3592628300768511
  0.8615853458784041  0.6721819732801864  0.3607573364932153
  0.6788715221045249  0.6672444169085733  0.4125239639358861
  0.5973664247504452  0.5002989742583861  0.4105298267507901
  0.5460356455879941  0.5900791672130347  0.2669690806866017
  0.5821251554276178  0.5842255504135638  0.3278111561253332
 
  0.12840935E-02 -0.54847886E-03  0.30288834E-03
  0.58727314E-05  0.96123962E-06 -0.14701985E-02
  0.70931303E-03  0.48899252E-03  0.19738135E-02
  0.33348024E-03 -0.11233115E-02  0.11074615E-02
  0.21506549E-03  0.86164426E-04 -0.36760044E-03
  0.49773688E-02  0.11541777E-02 -0.52950563E-02
 -0.26460053E-02 -0.48843203E-02 -0.12236507E-01
 -0.12977163E-02 -0.27851728E-02 -0.22061602E-02
 -0.14437543E-02  0.30035813E-03  0.10396455E-02
 -0.71631246E-02  0.35840200E-02 -0.13442652E-01
  0.38058685E-01  0.20495530E-01 -0.36488150E-01
  0.71395175E-02  0.96677636E-02 -0.10296157E-01
 -0.53654757E-03  0.86339369E-03 -0.11949145E-03
  0.33850510E-03  0.12530584E-02 -0.25479772E-03
  0.15802303E-02 -0.11320028E-02  0.14878444E-02
 -0.57309400E-02 -0.35084943E-02 -0.41135657E-02
 -0.21026050E-03 -0.12122381E-05  0.15708791E-03
  0.85925236E-03  0.29695640E-05  0.50294648E-03
  0.16385785E-02  0.18576395E-02  0.42156723E-03
  0.16618228E-03  0.25537424E-03  0.47973372E-03
 -0.48516252E-03 -0.30179317E-03  0.12439532E-02
  0.64644139E-03 -0.88007569E-03  0.15311915E-02
  0.72827585E-03  0.13783775E-02  0.25930385E-03
  0.91780651E-04 -0.24876424E-02 -0.50567150E-03
  0.89792860E-03 -0.34873036E-03  0.32184238E-03
  0.37724334E-02  0.31878826E-02 -0.71837695E-03
 -0.98824139E-03 -0.33183559E-02 -0.55638177E-02
  0.41666169E-02  0.14893807E-02 -0.26198976E-02
  0.58665848E-02 -0.27866160E-02 -0.11343149E-02
 -0.46374022E-02  0.82945714E-02 -0.76346292E-05
  0.10820921E-02 -0.18641470E-02  0.79687665E-03
  0.46667342E-03  0.23440563E-03 -0.31423834E-03
 -0.10558046E-01  0.14473189E-03 -0.30452485E-02
  0.12043855E-02  0.13150822E-02 -0.23261331E-02
  0.52259218E-02  0.53466779E-02 -0.10058683E-01
 -0.20600692E-02  0.18072460E-01 -0.54086268E-01
  0.15119894E-01 -0.37941262E-02 -0.15330637E-01
  0.62106666E-02 -0.41845970E-02 -0.41375837E-02
 -0.12382096E-01  0.24420052E-02 -0.10997654E-01
 -0.25747862E-04  0.95459291E-04  0.84561616E-03
  0.31920414E-03  0.66072132E-03  0.10013299E-02
 -0.51048892E-02  0.46925917E-02 -0.49972603E-02
  0.75094136E-03 -0.33283388E-02 -0.22178669E-02
 -0.40324154E-02  0.53989505E-02 -0.97726195E-02
  0.74917457E-02 -0.15276418E-01 -0.21731771E-03
  0.22617454E-02  0.36848889E-02 -0.90599566E-02
 -0.44069668E-02 -0.60994159E-02 -0.27785772E-02
 -0.54221516E-02  0.14847376E-01 -0.44974327E-01
  0.99549871E-01  0.35115647E-02  0.18891811E+00
  0.26574888E+00  0.36818130E-02  0.21306595E+00
  0.46312210E-01 -0.10808823E-01 -0.26121255E-01
  0.48783577E-01  0.20023661E-01 -0.18231036E-01
  0.96438525E-02  0.10963051E-01 -0.67466168E-01
  0.68814113E-02 -0.53709845E-02 -0.73899771E-01
 -0.40440054E-01 -0.67817704E-01  0.55542555E+00
 -0.48126489E+00 -0.64148831E-02 -0.51379453E+00
