 POSCAR1Pd_                             
   1.00000000000000     
    12.7690000533999992    0.0000000000000000    0.0000000000000000
    -6.3845000266999996   11.0582784271999994    0.0000000000000000
     0.0000000000000000    0.0000000000000000   18.1282997130999988
   Mo   S    Pd   C    H 
    16    31     1     2     4
Direct
  0.0836784571083632  0.1653743511918042  0.1392166741765165
  0.3334132153815572  0.1646942149867255  0.1398879879795052
  0.5818041820182618  0.1621860133092506  0.1369473132239176
  0.8333380483673969  0.1651654791717240  0.1374699802945699
  0.0836851045595512  0.4151803093089405  0.1391777448086544
  0.3350694784700083  0.4158581153551506  0.1406991443934844
  0.5853388044043711  0.4147223316914461  0.1431353916662382
  0.8326003783734982  0.4141155326301766  0.1396594554852949
  0.0818656312621566  0.6643828745507649  0.1399534020587589
  0.3329048385622986  0.6648729472451446  0.1389179797758009
  0.5846980706472226  0.6690046266964146  0.1400345897724690
  0.8295447464052774  0.6641786980279826  0.1416759646313823
  0.0818093165991115  0.9141374671875153  0.1399211555129235
  0.3315768368380133  0.9139905782977685  0.1384634919423613
  0.5824960083123726  0.9159608858281580  0.1360089803204358
  0.8325762455960377  0.9153027796607169  0.1382186690731665
  0.1666421047937359  0.0813120982288826  0.0538840771544714
  0.1659068191855151  0.0814077750054520  0.2254533915582898
  0.4138226901972780  0.0807230262574443  0.0523471230802429
  0.4164201741875800  0.0798862087110306  0.2243751412925878
  0.6673377847516390  0.0824457502284690  0.0503052641687762
  0.6660721592518805  0.0802251657268011  0.2227439028835280
  0.9180909862162436  0.0821776358051042  0.0522728781004180
  0.9160621772234799  0.0821430329587269  0.2240677690753003
  0.1690580089925596  0.3328482689543448  0.0539432134961383
  0.1666644460262899  0.3317123310852446  0.2253944572926776
  0.4207883350652293  0.3339342709509850  0.0558049039451704
  0.4176017610648933  0.3319051206162047  0.2267467434064491
  0.6654030338379744  0.3330574211679797  0.0540913447832073
  0.6675733670204886  0.3221388235811863  0.2252699835920878
  0.9174265907049665  0.3332368363025280  0.0527092541184850
  0.9169091433121005  0.3305477031005322  0.2245254305638459
  0.1656857830220460  0.5817607842910093  0.0534384549730364
  0.1666382700808459  0.5814363725115040  0.2252556549994489
  0.4178450154396293  0.5817505657235490  0.0540338645092828
  0.4194042939047838  0.5835166553572145  0.2256066516356923
  0.6648877696281772  0.5805978809380414  0.0582413222626832
  0.9136940078947098  0.5827798028983798  0.0547563121919882
  0.9141296594882449  0.5804509071772540  0.2257511980268428
  0.1636596654927145  0.8301768630126911  0.0535950526432610
  0.1660061265290873  0.8312700838636516  0.2254542776926547
  0.4136807562316949  0.8300126864849167  0.0518002635034056
  0.4171407224786028  0.8324150757274016  0.2236354358405228
  0.6661471570852993  0.8308598601384486  0.0515970823584919
  0.6668335510640611  0.8368386323869794  0.2227823078622223
  0.9145728315577153  0.8279178391159555  0.0540758657231659
  0.9129449792643749  0.8312101833314126  0.2256134028089708
  0.6614724146264096  0.5861483552898593  0.2582940855216282
  0.6626055088362607  0.6859514440687074  0.3556223202511667
  0.6725143679084180  0.5992489764787986  0.3815124277059205
  0.6563951829979429  0.7662837683677595  0.3647567976326733
  0.6810058538563262  0.5527704379816458  0.4291126125753912
  0.6756788252295627  0.5048212774924464  0.3266892911484700
  0.6676725030659186  0.4610481721475096  0.2695920580374455
 
  0.15863736E-02  0.90919985E-03 -0.12579089E-03
  0.17182016E-02  0.23014168E-02  0.17815279E-02
  0.17496030E-02 -0.93603570E-02 -0.13494033E-01
  0.48336399E-03  0.24384499E-03 -0.94869484E-03
  0.22728501E-03  0.10543427E-02 -0.14528606E-03
  0.81439203E-02 -0.30706635E-02 -0.33140322E-02
 -0.31683049E-01  0.24665325E-01 -0.30881978E-01
 -0.46390623E-02  0.13517481E-02 -0.33026731E-02
 -0.37362818E-03 -0.82382310E-03 -0.14932969E-02
  0.82071947E-03 -0.10447649E-02  0.81367499E-03
 -0.33497654E-02  0.40159066E-02 -0.54479139E-02
 -0.87826742E-03  0.38077648E-02 -0.95382553E-02
  0.80974373E-04  0.40082733E-03  0.26515422E-03
 -0.73793565E-03 -0.15894634E-02 -0.46990453E-03
  0.51932345E-03 -0.25572564E-03 -0.11804111E-02
  0.35185882E-02  0.46374515E-03 -0.29056013E-02
  0.17984931E-02  0.29252621E-03  0.32175056E-03
  0.10847803E-02  0.98575192E-03  0.30415781E-03
 -0.14173305E-02 -0.56699635E-02 -0.35823751E-02
  0.28213926E-02  0.11019658E-02 -0.26647717E-02
  0.61768826E-02 -0.25417152E-02 -0.53057091E-02
 -0.59193834E-03 -0.12071284E-03 -0.24737019E-02
  0.13301989E-02  0.14059852E-02 -0.18898500E-03
  0.84833850E-03  0.15656772E-02 -0.11033894E-02
  0.51106001E-03  0.28505103E-02 -0.81063342E-04
  0.27253553E-02  0.10799128E-02 -0.14490305E-02
  0.35725500E-03 -0.69650922E-02 -0.67299536E-02
  0.89953612E-02  0.16659498E-01  0.20797538E-02
 -0.60356280E-02  0.22958505E-02 -0.78126276E-02
 -0.21203523E-01 -0.20805887E-01 -0.51986212E-01
 -0.20963928E-02  0.24604814E-02 -0.41981524E-03
 -0.40506210E-02  0.11668783E-02 -0.71490466E-03
  0.54134245E-03 -0.23822465E-03  0.15474559E-03
 -0.10613238E-03 -0.31902801E-04  0.21513523E-03
 -0.25397336E-03  0.18998541E-02 -0.38663609E-02
  0.14854329E-01 -0.11059791E-02 -0.51287899E-02
 -0.39108926E-02  0.16112515E-01 -0.15620362E-01
  0.83684611E-03  0.16779985E-03 -0.32886309E-02
 -0.61020540E-02  0.39639208E-02 -0.38853674E-02
 -0.16822909E-03 -0.62575909E-03  0.14426675E-03
 -0.11372804E-02 -0.89001733E-03 -0.68160869E-03
 -0.52476476E-04 -0.19218740E-02 -0.35264949E-04
  0.80029236E-04 -0.12730654E-03  0.47978051E-03
  0.19467581E-03  0.32353098E-02 -0.38073246E-02
  0.43340287E-02 -0.51931255E-02 -0.10302963E-01
  0.13909123E-02  0.27068264E-02 -0.23585598E-02
 -0.42678756E-02 -0.57449805E-02 -0.44176543E-04
 -0.10539888E-01  0.66250350E-02  0.26717187E-01
 -0.91647077E-01  0.13028297E+00  0.15378425E+00
 -0.14157076E+00  0.23640053E+00  0.18029433E+00
 -0.10684456E+00  0.11983788E+00 -0.91041687E-01
  0.56474509E-01 -0.58449283E-01 -0.12347271E+00
  0.22848615E+00 -0.45635099E+00 -0.47641203E+00
  0.90272239E-01 -0.12819206E-01  0.53045103E+00
