POSCAR1Pd_                              
   1.00000000000000     
    12.7690000533999992    0.0000000000000000    0.0000000000000000
    -6.3845000266999996   11.0582784271999994    0.0000000000000000
     0.0000000000000000    0.0000000000000000   18.1282997130999988
   Mo   S    Ni   C    H 
    16    31     1     2     4
Direct
  0.0871545308674447  0.1684465848879216  0.1449105601889788
  0.3375209188298267  0.1684401649403003  0.1456749713054715
  0.5868092078316468  0.1683144871341600  0.1457611059644141
  0.8369803400394814  0.1688945001743412  0.1449417076434517
  0.0872043792031353  0.4189318663142811  0.1451767543410286
  0.3383566064669160  0.4178981554208471  0.1428454233849344
  0.5875659731851907  0.4221267759898165  0.1462517885040278
  0.8360942496653797  0.4191782599583746  0.1462785428606468
  0.0871947908335804  0.6686742444622626  0.1461676195113774
  0.3376705082239505  0.6675589353867937  0.1440121746967709
  0.5849824150373498  0.6726211558170970  0.1329339914570739
  0.8320123240132682  0.6675453457369641  0.1462189376995179
  0.0860516110276348  0.9172680856742077  0.1460806809488016
  0.3371189259623135  0.9181299305122146  0.1456104423714411
  0.5882349668131135  0.9187172190532595  0.1434924856560030
  0.8372414981871731  0.9177762925997008  0.1426922096415728
  0.1704481179930354  0.0839592164233734  0.0598709835175041
  0.1699549168402983  0.0852125136936970  0.2313780761357200
  0.4203643691341786  0.0849120714952843  0.0598273145956294
  0.4203353000862617  0.0846847725400963  0.2317170338464355
  0.6705616542623265  0.0870185542168767  0.0588839267360436
  0.6704787023342560  0.0835002456573573  0.2307666373455506
  0.9215698582301682  0.0869763297422488  0.0585421152203065
  0.9195952214401949  0.0836313084925718  0.2299102444427307
  0.1692413600036029  0.3344149911751246  0.0587090249507112
  0.1723500652765714  0.3360066049141526  0.2299983692169746
  0.4231508242901131  0.3346501690090457  0.0587741228647076
  0.4215630908701816  0.3375804809018220  0.2307684229387754
  0.6692550344578621  0.3365577050848629  0.0606213802539698
  0.6689272952961629  0.3345388443206826  0.2317982109744536
  0.9198209036311422  0.3366033192090601  0.0597669307363923
  0.9204394157188238  0.3352651220798569  0.2313441977115942
  0.1693711567128845  0.5855923733288926  0.0593621271363342
  0.1724793711415593  0.5852113832281006  0.2311660568238110
  0.4134987126378170  0.5817287006403853  0.0533688237474372
  0.4313205061600494  0.5855250514551675  0.2266268159725996
  0.6708451162909432  0.5841407142748809  0.0571446705842581
  0.9189670033385382  0.5865769721122537  0.0608952723164120
  0.9199935602088246  0.5864030430677156  0.2316707037789489
  0.1699240841408736  0.8347817230046521  0.0601959234004535
  0.1707039009810325  0.8351547646192697  0.2320134999120179
  0.4197877963715855  0.8352191592064414  0.0587732272922314
  0.4220289136606902  0.8341788017482540  0.2299728477046220
  0.6741913184403752  0.8429797667972784  0.0528412352541714
  0.6702965296862218  0.8266492984836324  0.2264740268900931
  0.9202077304596412  0.8319675932803157  0.0589588598014763
  0.9157665668148773  0.8331059843039326  0.2311063453099083
  0.6451284751161152  0.6033544972113846  0.2472391368024725
  0.5896361696173251  0.5306202021126415  0.3957922292822611
  0.6720581094732843  0.5589009642657226  0.3423498716882726
  0.6071618867058323  0.5131375674134071  0.4525400696346428
  0.7567107406395939  0.5594966843455421  0.3542627978123455
  0.5017010407052684  0.5238194984862518  0.3867499414018279
  0.7122882146445850  0.5416788735958042  0.2239465897904426
 
  0.00000000E+00  0.00000000E+00  0.00000000E+00
  0.00000000E+00  0.00000000E+00  0.00000000E+00
  0.00000000E+00  0.00000000E+00  0.00000000E+00
  0.00000000E+00  0.00000000E+00  0.00000000E+00
  0.00000000E+00  0.00000000E+00  0.00000000E+00
  0.00000000E+00  0.00000000E+00  0.00000000E+00
  0.00000000E+00  0.00000000E+00  0.00000000E+00
  0.00000000E+00  0.00000000E+00  0.00000000E+00
  0.00000000E+00  0.00000000E+00  0.00000000E+00
  0.00000000E+00  0.00000000E+00  0.00000000E+00
  0.00000000E+00  0.00000000E+00  0.00000000E+00
  0.00000000E+00  0.00000000E+00  0.00000000E+00
  0.00000000E+00  0.00000000E+00  0.00000000E+00
  0.00000000E+00  0.00000000E+00  0.00000000E+00
  0.00000000E+00  0.00000000E+00  0.00000000E+00
  0.00000000E+00  0.00000000E+00  0.00000000E+00
  0.00000000E+00  0.00000000E+00  0.00000000E+00
  0.00000000E+00  0.00000000E+00  0.00000000E+00
  0.00000000E+00  0.00000000E+00  0.00000000E+00
  0.00000000E+00  0.00000000E+00  0.00000000E+00
  0.00000000E+00  0.00000000E+00  0.00000000E+00
  0.00000000E+00  0.00000000E+00  0.00000000E+00
  0.00000000E+00  0.00000000E+00  0.00000000E+00
  0.00000000E+00  0.00000000E+00  0.00000000E+00
  0.00000000E+00  0.00000000E+00  0.00000000E+00
  0.00000000E+00  0.00000000E+00  0.00000000E+00
  0.00000000E+00  0.00000000E+00  0.00000000E+00
  0.00000000E+00  0.00000000E+00  0.00000000E+00
  0.00000000E+00  0.00000000E+00  0.00000000E+00
  0.00000000E+00  0.00000000E+00  0.00000000E+00
  0.00000000E+00  0.00000000E+00  0.00000000E+00
  0.00000000E+00  0.00000000E+00  0.00000000E+00
  0.00000000E+00  0.00000000E+00  0.00000000E+00
  0.00000000E+00  0.00000000E+00  0.00000000E+00
  0.00000000E+00  0.00000000E+00  0.00000000E+00
  0.00000000E+00  0.00000000E+00  0.00000000E+00
  0.00000000E+00  0.00000000E+00  0.00000000E+00
  0.00000000E+00  0.00000000E+00  0.00000000E+00
  0.00000000E+00  0.00000000E+00  0.00000000E+00
  0.00000000E+00  0.00000000E+00  0.00000000E+00
  0.00000000E+00  0.00000000E+00  0.00000000E+00
  0.00000000E+00  0.00000000E+00  0.00000000E+00
  0.00000000E+00  0.00000000E+00  0.00000000E+00
  0.00000000E+00  0.00000000E+00  0.00000000E+00
  0.00000000E+00  0.00000000E+00  0.00000000E+00
  0.00000000E+00  0.00000000E+00  0.00000000E+00
  0.00000000E+00  0.00000000E+00  0.00000000E+00
  0.00000000E+00  0.00000000E+00  0.00000000E+00
  0.00000000E+00  0.00000000E+00  0.00000000E+00
  0.00000000E+00  0.00000000E+00  0.00000000E+00
  0.00000000E+00  0.00000000E+00  0.00000000E+00
  0.00000000E+00  0.00000000E+00  0.00000000E+00
  0.00000000E+00  0.00000000E+00  0.00000000E+00
  0.00000000E+00  0.00000000E+00  0.00000000E+00
