CONTCAR                                 
   1.00000000000000     
    12.7690000533999992    0.0000000000000000    0.0000000000000000
    -6.3845000266999996   11.0582784271999994    0.0000000000000000
     0.0000000000000000    0.0000000000000000   18.1282997130999988
   Mo   S    Ni   C    H 
    16    31     1     2     4
Direct
  0.0826104062019693  0.1664363462695552  0.1425272303933395
  0.3326849804070208  0.1663738187139414  0.1429583050527930
  0.5822423946943771  0.1670736171864298  0.1429954700765816
  0.8323116792304954  0.1670014855038743  0.1424630560690886
  0.0828390243106478  0.4170519239562294  0.1430477615599604
  0.3347287443690597  0.4163465693686502  0.1403423606558991
  0.5823498865407239  0.4203251698751136  0.1409323668158126
  0.8313398257809244  0.4177827668152616  0.1427622478465617
  0.0820286112369504  0.6666436933421500  0.1438940639694636
  0.3342243851595335  0.6656530445313469  0.1427344141280393
  0.5824529724017349  0.6674146404964302  0.1328537351164720
  0.8266901421714701  0.6649664988764372  0.1422370975639176
  0.0815686443350766  0.9154192779182061  0.1434920369365544
  0.3324034210578109  0.9159234072199336  0.1437783373783575
  0.5833470244139564  0.9166678334178261  0.1415159804828228
  0.8325210130706333  0.9156675863533970  0.1404004987671562
  0.1656106070505273  0.0819710640099756  0.0572762048123158
  0.1654073991888742  0.0832889473449846  0.2289503899646532
  0.4153698293145306  0.0822030008951404  0.0575810325735859
  0.4160573913768061  0.0834769847416875  0.2293154866813425
  0.6657214529433000  0.0846008463673603  0.0565907726051289
  0.6658432942779460  0.0825864630030840  0.2283879724117776
  0.9167422600873645  0.0847661386402359  0.0560825984282011
  0.9148120929546647  0.0817414832350404  0.2275060931073062
  0.1648741816357215  0.3328142239337232  0.0564452763406419
  0.1683719947685638  0.3341816793060300  0.2275725329038390
  0.4169505102103543  0.3317238798855524  0.0551565162603725
  0.4197106510817574  0.3372984018676803  0.2274988841138010
  0.6646839264071494  0.3338204819423640  0.0564954898398330
  0.6644785503370141  0.3371113447095994  0.2274120582725014
  0.9158569494328446  0.3346167726321055  0.0570954682433996
  0.9151614578136599  0.3337562505146456  0.2285289131297734
  0.1660044050952260  0.5841143243610061  0.0577435543739046
  0.1674124724702396  0.5831547693302804  0.2291533832824482
  0.4119552353065714  0.5818237057344019  0.0519877192286787
  0.4280985380066047  0.5819603187607295  0.2256260063847804
  0.6665626242823477  0.5823803815287169  0.0531180862782674
  0.9151416429013276  0.5852198369747185  0.0574643282910362
  0.9113039369965026  0.5835998542535450  0.2280026627310093
  0.1655722815810505  0.8326706936553057  0.0580202090379649
  0.1653544380675951  0.8328546208322696  0.2299199467403143
  0.4149628745462832  0.8325513384570081  0.0571571543594036
  0.4177299381999113  0.8324666755764406  0.2284963967219833
  0.6680479800965836  0.8385218863606252  0.0515453213581259
  0.6659834340884556  0.8260408368726012  0.2241095335880140
  0.9158742580617329  0.8305892175475610  0.0562026868617896
  0.9102878818250402  0.8298714623112097  0.2277731188255650
  0.6292693449370830  0.5922925050455545  0.2478542729270274
  0.7150137772862818  0.5783123437041695  0.3447918064060774
  0.6104096119425003  0.5798988973540200  0.3611444808247148
  0.7162269042869918  0.4935711256972846  0.3423745397890198
  0.8031065614316996  0.6607950126513523  0.3470996601391296
  0.6132717406660302  0.6641694203491181  0.3766377647366294
  0.5255045036604942  0.4964051557681042  0.3719366956128239
 
  0.00000000E+00  0.00000000E+00  0.00000000E+00
  0.00000000E+00  0.00000000E+00  0.00000000E+00
  0.00000000E+00  0.00000000E+00  0.00000000E+00
  0.00000000E+00  0.00000000E+00  0.00000000E+00
  0.00000000E+00  0.00000000E+00  0.00000000E+00
  0.00000000E+00  0.00000000E+00  0.00000000E+00
  0.00000000E+00  0.00000000E+00  0.00000000E+00
  0.00000000E+00  0.00000000E+00  0.00000000E+00
  0.00000000E+00  0.00000000E+00  0.00000000E+00
  0.00000000E+00  0.00000000E+00  0.00000000E+00
  0.00000000E+00  0.00000000E+00  0.00000000E+00
  0.00000000E+00  0.00000000E+00  0.00000000E+00
  0.00000000E+00  0.00000000E+00  0.00000000E+00
  0.00000000E+00  0.00000000E+00  0.00000000E+00
  0.00000000E+00  0.00000000E+00  0.00000000E+00
  0.00000000E+00  0.00000000E+00  0.00000000E+00
  0.00000000E+00  0.00000000E+00  0.00000000E+00
  0.00000000E+00  0.00000000E+00  0.00000000E+00
  0.00000000E+00  0.00000000E+00  0.00000000E+00
  0.00000000E+00  0.00000000E+00  0.00000000E+00
  0.00000000E+00  0.00000000E+00  0.00000000E+00
  0.00000000E+00  0.00000000E+00  0.00000000E+00
  0.00000000E+00  0.00000000E+00  0.00000000E+00
  0.00000000E+00  0.00000000E+00  0.00000000E+00
  0.00000000E+00  0.00000000E+00  0.00000000E+00
  0.00000000E+00  0.00000000E+00  0.00000000E+00
  0.00000000E+00  0.00000000E+00  0.00000000E+00
  0.00000000E+00  0.00000000E+00  0.00000000E+00
  0.00000000E+00  0.00000000E+00  0.00000000E+00
  0.00000000E+00  0.00000000E+00  0.00000000E+00
  0.00000000E+00  0.00000000E+00  0.00000000E+00
  0.00000000E+00  0.00000000E+00  0.00000000E+00
  0.00000000E+00  0.00000000E+00  0.00000000E+00
  0.00000000E+00  0.00000000E+00  0.00000000E+00
  0.00000000E+00  0.00000000E+00  0.00000000E+00
  0.00000000E+00  0.00000000E+00  0.00000000E+00
  0.00000000E+00  0.00000000E+00  0.00000000E+00
  0.00000000E+00  0.00000000E+00  0.00000000E+00
  0.00000000E+00  0.00000000E+00  0.00000000E+00
  0.00000000E+00  0.00000000E+00  0.00000000E+00
  0.00000000E+00  0.00000000E+00  0.00000000E+00
  0.00000000E+00  0.00000000E+00  0.00000000E+00
  0.00000000E+00  0.00000000E+00  0.00000000E+00
  0.00000000E+00  0.00000000E+00  0.00000000E+00
  0.00000000E+00  0.00000000E+00  0.00000000E+00
  0.00000000E+00  0.00000000E+00  0.00000000E+00
  0.00000000E+00  0.00000000E+00  0.00000000E+00
  0.00000000E+00  0.00000000E+00  0.00000000E+00
  0.00000000E+00  0.00000000E+00  0.00000000E+00
  0.00000000E+00  0.00000000E+00  0.00000000E+00
  0.00000000E+00  0.00000000E+00  0.00000000E+00
  0.00000000E+00  0.00000000E+00  0.00000000E+00
  0.00000000E+00  0.00000000E+00  0.00000000E+00
  0.00000000E+00  0.00000000E+00  0.00000000E+00
