POSCARMoS21PdDoped                      
   1.00000000000000     
    12.7690000533999992    0.0000000000000000    0.0000000000000000
    -6.3845000266999996   11.0582784271999994    0.0000000000000000
     0.0000000000000000    0.0000000000000000   18.1282997130999988
   Mo   S    Ni   C    H 
    16    31     1     2     2
Direct
  0.0800594124776805  0.1622426349048001  0.1427231164501759
  0.3307391578169875  0.1634118615745370  0.1436900154695799
  0.5798491116378971  0.1634241935456289  0.1436655751522763
  0.8294219228885533  0.1622279657427556  0.1427118611618809
  0.0799483972872684  0.4125586302681793  0.1422563253617270
  0.3316122799919559  0.4136570358968982  0.1418289249748918
  0.5828994730925441  0.4184015380104357  0.1429240046422604
  0.8293232848596170  0.4135454605191544  0.1418421322083386
  0.0795447414743501  0.6622144770109309  0.1419484327423113
  0.3301078960934593  0.6623071189771815  0.1419592648943526
  0.5807052776244159  0.6624598946697933  0.1384732522412759
  0.8293315128020066  0.6622528477988898  0.1381585655488539
  0.0788191670597053  0.9117452652772519  0.1428016221288502
  0.3300034023583751  0.9128698685273352  0.1433703101203288
  0.5801781601518591  0.9118945551627915  0.1427261627550572
  0.8284073396489249  0.9096247996522291  0.1408710927223378
  0.1642696761156663  0.0793617737213779  0.0574558832459394
  0.1623899258274903  0.0786195828643966  0.2289850963097026
  0.4135439273468023  0.0800490788975886  0.0578940015153771
  0.4133810845039860  0.0796054400951766  0.2297191326153560
  0.6623347829798319  0.0794678953311494  0.0573928009443235
  0.6634526200221498  0.0787316249114751  0.2289586535606610
  0.9132730183912242  0.0792632452219963  0.0567702179563524
  0.9120302949168341  0.0768149158010216  0.2276361145605346
  0.1634352473154770  0.3288261127320540  0.0565879990182186
  0.1642422537183561  0.3298034420858083  0.2279661609709008
  0.4165044156606043  0.3302503292915106  0.0572100603868655
  0.4166026131102722  0.3340539366957927  0.2280625902127675
  0.6611246064739831  0.3302504160623008  0.0572159214366810
  0.6645717433349602  0.3340086993005699  0.2281257105047859
  0.9127043864004385  0.3287449971926828  0.0565992018879562
  0.9128242147861895  0.3297604290259831  0.2279789543908395
  0.1632463134542893  0.5790353220048671  0.0562316913300599
  0.1632559804336189  0.5790827379452308  0.2280469492932294
  0.4122602998698606  0.5790708006405498  0.0543361642144604
  0.4176602696235754  0.5799848207281577  0.2264718570547823
  0.6630829748038654  0.5788925479799725  0.0546094274419540
  0.9143174343980039  0.5787215808696550  0.0541571367842444
  0.9096819287268147  0.5798761937104430  0.2264371320756004
  0.1637534331579378  0.8300139359921856  0.0570888019706095
  0.1621776752593586  0.8282371602131183  0.2285972123272422
  0.4133940581164756  0.8300706684361753  0.0570689625117183
  0.4133381306605746  0.8283178740170267  0.2285365772546745
  0.6623256300747649  0.8297193973403718  0.0542036941360364
  0.6632956003602657  0.8220524751871164  0.2271915793062079
  0.9147540023285079  0.8298158368427490  0.0541762942689240
  0.9055808629529992  0.8215424307631114  0.2271795078827925
  0.6829931476562098  0.6161936189413925  0.2489437063598801
  0.6330322905033805  0.5205057943819873  0.3410354168430100
  0.6903507118647757  0.6305288345589835  0.3568793369333633
  0.5824328241377417  0.4237668582665189  0.3483042644511392
  0.7330209768025612  0.7123747371794984  0.3892431756974846
 
  0.00000000E+00  0.00000000E+00  0.00000000E+00
  0.00000000E+00  0.00000000E+00  0.00000000E+00
  0.00000000E+00  0.00000000E+00  0.00000000E+00
  0.00000000E+00  0.00000000E+00  0.00000000E+00
  0.00000000E+00  0.00000000E+00  0.00000000E+00
  0.00000000E+00  0.00000000E+00  0.00000000E+00
  0.00000000E+00  0.00000000E+00  0.00000000E+00
  0.00000000E+00  0.00000000E+00  0.00000000E+00
  0.00000000E+00  0.00000000E+00  0.00000000E+00
  0.00000000E+00  0.00000000E+00  0.00000000E+00
  0.00000000E+00  0.00000000E+00  0.00000000E+00
  0.00000000E+00  0.00000000E+00  0.00000000E+00
  0.00000000E+00  0.00000000E+00  0.00000000E+00
  0.00000000E+00  0.00000000E+00  0.00000000E+00
  0.00000000E+00  0.00000000E+00  0.00000000E+00
  0.00000000E+00  0.00000000E+00  0.00000000E+00
  0.00000000E+00  0.00000000E+00  0.00000000E+00
  0.00000000E+00  0.00000000E+00  0.00000000E+00
  0.00000000E+00  0.00000000E+00  0.00000000E+00
  0.00000000E+00  0.00000000E+00  0.00000000E+00
  0.00000000E+00  0.00000000E+00  0.00000000E+00
  0.00000000E+00  0.00000000E+00  0.00000000E+00
  0.00000000E+00  0.00000000E+00  0.00000000E+00
  0.00000000E+00  0.00000000E+00  0.00000000E+00
  0.00000000E+00  0.00000000E+00  0.00000000E+00
  0.00000000E+00  0.00000000E+00  0.00000000E+00
  0.00000000E+00  0.00000000E+00  0.00000000E+00
  0.00000000E+00  0.00000000E+00  0.00000000E+00
  0.00000000E+00  0.00000000E+00  0.00000000E+00
  0.00000000E+00  0.00000000E+00  0.00000000E+00
  0.00000000E+00  0.00000000E+00  0.00000000E+00
  0.00000000E+00  0.00000000E+00  0.00000000E+00
  0.00000000E+00  0.00000000E+00  0.00000000E+00
  0.00000000E+00  0.00000000E+00  0.00000000E+00
  0.00000000E+00  0.00000000E+00  0.00000000E+00
  0.00000000E+00  0.00000000E+00  0.00000000E+00
  0.00000000E+00  0.00000000E+00  0.00000000E+00
  0.00000000E+00  0.00000000E+00  0.00000000E+00
  0.00000000E+00  0.00000000E+00  0.00000000E+00
  0.00000000E+00  0.00000000E+00  0.00000000E+00
  0.00000000E+00  0.00000000E+00  0.00000000E+00
  0.00000000E+00  0.00000000E+00  0.00000000E+00
  0.00000000E+00  0.00000000E+00  0.00000000E+00
  0.00000000E+00  0.00000000E+00  0.00000000E+00
  0.00000000E+00  0.00000000E+00  0.00000000E+00
  0.00000000E+00  0.00000000E+00  0.00000000E+00
  0.00000000E+00  0.00000000E+00  0.00000000E+00
  0.00000000E+00  0.00000000E+00  0.00000000E+00
  0.00000000E+00  0.00000000E+00  0.00000000E+00
  0.00000000E+00  0.00000000E+00  0.00000000E+00
  0.00000000E+00  0.00000000E+00  0.00000000E+00
  0.00000000E+00  0.00000000E+00  0.00000000E+00
