Generated by VASPKIT code
 1.000000
   12.7690000533999992    0.0000000000000000    0.0000000000000000
   -6.3845000266999996   11.0582784271999994    0.0000000000000000
    0.0000000000000000    0.0000000000000000   18.1282997130999988
   Mo   S    Ni   C    H 
    16    31     1     2     4
Direct
    0.0829765000000000    0.1687592100000000    0.1427612200000000    F  F  F            Mo1
    0.3327690500000000    0.1690394000000000    0.1415905900000000    F  F  F            Mo2
    0.5827147100000000    0.1674943900000000    0.1397417800000000    F  F  F            Mo3
    0.8328523700000000    0.1686038000000000    0.1415581300000000    F  F  F            Mo4
    0.0828929900000000    0.4186787000000000    0.1427529200000000    F  F  F            Mo5
    0.3338941400000000    0.4189508200000000    0.1429917200000000    F  F  F            Mo6
    0.5835739900000000    0.4148130100000000    0.1391413800000000    F  F  F            Mo7
    0.8319560900000000    0.4174974200000000    0.1415808500000000    F  F  F            Mo8
    0.0809738600000000    0.6684952199999999    0.1442049800000000    F  F  F            Mo9
    0.3329329100000000    0.6692480700000000    0.1434604000000000    F  F  F           Mo10
    0.5859634800000000    0.6714354300000001    0.1457763600000000    F  F  F           Mo11
    0.8265635500000000    0.6632652900000000    0.1465875300000000    F  F  F           Mo12
    0.0823878500000000    0.9184660300000000    0.1440752900000000    F  F  F           Mo13
    0.3317545800000000    0.9183638800000000    0.1425159100000000    F  F  F           Mo14
    0.5821751700000000    0.9198017900000000    0.1419618200000000    F  F  F           Mo15
    0.8315879900000001    0.9187557700000000    0.1440541500000000    F  F  F           Mo16
    0.1646963200000000    0.0837284300000000    0.0569221200000000    F  F  F             S1
    0.1677225500000000    0.0872459700000000    0.2288162000000000    F  F  F             S2
    0.4138361800000000    0.0837773900000000    0.0554693200000000    F  F  F             S3
    0.4172652200000000    0.0865975600000000    0.2270779100000000    F  F  F             S4
    0.6667792400000000    0.0843778700000000    0.0547903500000000    F  F  F             S5
    0.6659475900000000    0.0871631500000000    0.2271436200000000    F  F  F             S6
    0.9164006400000000    0.0841252100000000    0.0567334600000000    F  F  F             S7
    0.9164318900000000    0.0871199000000000    0.2287068300000000    F  F  F             S8
    0.1671816600000000    0.3360402700000000    0.0570907400000000    F  F  F             S9
    0.1666158200000000    0.3356230200000000    0.2286340600000000    F  F  F            S10
    0.4146231800000000    0.3351663600000000    0.0552460000000000    F  F  F            S11
    0.4214149900000000    0.3387658500000000    0.2274071600000000    F  F  F            S12
    0.6671155200000000    0.3338571800000000    0.0535365300000000    F  F  F            S13
    0.6658482000000000    0.3340703500000000    0.2258715100000000    F  F  F            S14
    0.9174658300000000    0.3358876400000000    0.0558900500000000    F  F  F            S15
    0.9154750500000000    0.3347257600000000    0.2277520800000000    F  F  F            S16
    0.1656494500000000    0.5864420100000000    0.0578195900000000    F  F  F            S17
    0.1654814500000000    0.5849085100000000    0.2291622500000000    F  F  F            S18
    0.4188798500000000    0.5869670900000000    0.0584589700000000    F  F  F            S19
    0.4165781600000000    0.5852437700000001    0.2292649100000000    F  F  F            S20
    0.6656130800000000    0.5860104900000001    0.0597158500000000    F  F  F            S21
    0.9136130800000000    0.5878605800000000    0.0585169100000000    F  F  F            S22
    0.9117842700000000    0.5805458600000000    0.2301550700000000    F  F  F            S23
    0.1635287500000000    0.8341838300000000    0.0577769600000000    F  F  F            S24
    0.1663471600000000    0.8357429700000000    0.2296544400000000    F  F  F            S25
    0.4145882600000000    0.8343499100000000    0.0566001600000000    F  F  F            S26
    0.4158961900000000    0.8365663200000000    0.2285584100000000    F  F  F            S27
    0.6656098600000000    0.8339406000000000    0.0578261600000000    F  F  F            S28
    0.6663955200000000    0.8427645200000000    0.2299080900000000    F  F  F            S29
    0.9129346600000000    0.8307336500000000    0.0599374200000000    F  F  F            S30
    0.9158535000000000    0.8369655600000000    0.2305344400000000    F  F  F            S31
    0.6542074500000000    0.5585397100000000    0.2570206300000000    F  F  F            Ni1
    0.6346189600000000    0.4783133700000000    0.3531418500000000    T  T  T             C1
    0.6511712000000000    0.5833717899999999    0.3625678500000000    T  T  T             C2
    0.6166435400000000    0.3896412800000000    0.3703053200000000    T  T  T             H1
    0.6609717800000000    0.6597439300000000    0.3938608300000000    T  T  T             H2
    0.7590346400000000    0.6807102800000000    0.2643394700000000    T  T  T             H3
    0.6560840999999999    0.6770772700000000    0.2400360500000000    T  T  T             H4

          0           0           0
          0           0           0
          0           0           0
          0           0           0
          0           0           0
          0           0           0
          0           0           0
          0           0           0
          0           0           0
          0           0           0
          0           0           0
          0           0           0
          0           0           0
          0           0           0
          0           0           0
          0           0           0
          0           0           0
          0           0           0
          0           0           0
          0           0           0
          0           0           0
          0           0           0
          0           0           0
          0           0           0
          0           0           0
          0           0           0
          0           0           0
          0           0           0
          0           0           0
          0           0           0
          0           0           0
          0           0           0
          0           0           0
          0           0           0
          0           0           0
          0           0           0
          0           0           0
          0           0           0
          0           0           0
          0           0           0
          0           0           0
          0           0           0
          0           0           0
          0           0           0
          0           0           0
          0           0           0
          0           0           0
          0           0           0
  -0.007206   -0.024503   -0.009448
   0.024727   -0.011921    0.005959
  -0.064683   -0.034539    0.020687
   0.047502   -0.008729    0.013930
  -0.630527    0.171958    0.621011
   0.354999    0.182622   -0.033478
