CONTCAR                                 
   1.00000000000000     
    12.7690000533999992    0.0000000000000000    0.0000000000000000
    -6.3845000266999996   11.0582784271999994    0.0000000000000000
     0.0000000000000000    0.0000000000000000   18.1282997130999988
   Mo   S    Ni   C    H 
    16    31     1     2     6
Direct
  0.0726415141084498  0.1576704748737809  0.1404214640672795
  0.3227954333604441  0.1578446378360651  0.1409266568667635
  0.5732628880212696  0.1596835028366473  0.1429231451531237
  0.8227109819809572  0.1578403180252026  0.1415492746616364
  0.0727856485143377  0.4080681175585329  0.1395436950842437
  0.3229370588227424  0.4085023550736415  0.1410074850029922
  0.5744296466133315  0.4123583533864041  0.1436341598529725
  0.8229576422569490  0.4090241665005902  0.1405978943677075
  0.0741084282717688  0.6584889557353942  0.1380034864054056
  0.3221152414150878  0.6589280818261728  0.1391692530272341
  0.5730405091932047  0.6551892335107896  0.1432585296373338
  0.8242383655003368  0.6577328692176011  0.1415151167200345
  0.0731408164498152  0.9082450521193253  0.1395789680110315
  0.3236998819185806  0.9089175506430558  0.1404656700906591
  0.5728909040849831  0.9071141325923977  0.1426338587783154
  0.8220103035404742  0.9063688090249310  0.1413950425222502
  0.1568382197342655  0.0754161278667912  0.0542517744051835
  0.1553087754808585  0.0737848694921561  0.2262655926166755
  0.4086497305320272  0.0767930016261215  0.0555809723321138
  0.4053100861882186  0.0743841098504505  0.2274525998154018
  0.6551292314359280  0.0744013749133183  0.0568870005679183
  0.6568914863209798  0.0751240274221190  0.2281847709449962
  0.9045529291961742  0.0732381489656362  0.0553791043981610
  0.9065132162938092  0.0743157455874588  0.2268881021157746
  0.1568483669291422  0.3244013108226200  0.0543611585683660
  0.1552522173207324  0.3246222533207194  0.2261007971429448
  0.4097032625118197  0.3267952061624836  0.0561887628960394
  0.4040050177938231  0.3232365842665486  0.2269380248927930
  0.6537118971512694  0.3265309422811942  0.0569148919778954
  0.6586209031250966  0.3310891672675929  0.2284807878296795
  0.9045434291390585  0.3234873226645283  0.0547028525479114
  0.9071116493604235  0.3257824660616288  0.2263113244032006
  0.1563528038525938  0.5739191618229180  0.0524912555894407
  0.1554549068881257  0.5751243488005919  0.2248724127601236
  0.4092641906769679  0.5758931952747766  0.0552754008251382
  0.4009612625331958  0.5755188680090920  0.2259109942537502
  0.6572794961798709  0.5752977329172125  0.0584614721007872
  0.9051825132000432  0.5745984795043952  0.0535826800284985
  0.9093883315804742  0.5752103645240920  0.2243490857359978
  0.1578795635481177  0.8266100405448986  0.0534038530808190
  0.1558477329137093  0.8240205044655602  0.2252058811015612
  0.4087999128804425  0.8269114612678199  0.0547878903805560
  0.4047111415968722  0.8240155875521656  0.2267641822575903
  0.6538557988286912  0.8208285961437931  0.0569518251269699
  0.6567605922037574  0.8200841816365023  0.2284887573612855
  0.9049524570750140  0.8234461774364663  0.0546387747278151
  0.9057942250218787  0.8238598466633427  0.2258494018251470
  0.6676715246352278  0.5815457798253780  0.2566585262471184
  0.7907892686572219  0.6152414130906297  0.3538602625990497
  0.6927235009057164  0.6216008008618188  0.3787786963265156
  0.6938821722535073  0.7078224206836669  0.3811992397832965
  0.6210001535529125  0.5469497479020868  0.4100045978991323
  0.7954458831637823  0.5329332748527961  0.3614101235225224
  0.8739754448728420  0.6968011905995454  0.3386966180007423
  0.5258105127679321  0.5166433967172542  0.2714280013465770
  0.5566409436447595  0.5413542725713010  0.3140678424155306
 
  0.00000000E+00  0.00000000E+00  0.00000000E+00
  0.00000000E+00  0.00000000E+00  0.00000000E+00
  0.00000000E+00  0.00000000E+00  0.00000000E+00
  0.00000000E+00  0.00000000E+00  0.00000000E+00
  0.00000000E+00  0.00000000E+00  0.00000000E+00
  0.00000000E+00  0.00000000E+00  0.00000000E+00
  0.00000000E+00  0.00000000E+00  0.00000000E+00
  0.00000000E+00  0.00000000E+00  0.00000000E+00
  0.00000000E+00  0.00000000E+00  0.00000000E+00
  0.00000000E+00  0.00000000E+00  0.00000000E+00
  0.00000000E+00  0.00000000E+00  0.00000000E+00
  0.00000000E+00  0.00000000E+00  0.00000000E+00
  0.00000000E+00  0.00000000E+00  0.00000000E+00
  0.00000000E+00  0.00000000E+00  0.00000000E+00
  0.00000000E+00  0.00000000E+00  0.00000000E+00
  0.00000000E+00  0.00000000E+00  0.00000000E+00
  0.00000000E+00  0.00000000E+00  0.00000000E+00
  0.00000000E+00  0.00000000E+00  0.00000000E+00
  0.00000000E+00  0.00000000E+00  0.00000000E+00
  0.00000000E+00  0.00000000E+00  0.00000000E+00
  0.00000000E+00  0.00000000E+00  0.00000000E+00
  0.00000000E+00  0.00000000E+00  0.00000000E+00
  0.00000000E+00  0.00000000E+00  0.00000000E+00
  0.00000000E+00  0.00000000E+00  0.00000000E+00
  0.00000000E+00  0.00000000E+00  0.00000000E+00
  0.00000000E+00  0.00000000E+00  0.00000000E+00
  0.00000000E+00  0.00000000E+00  0.00000000E+00
  0.00000000E+00  0.00000000E+00  0.00000000E+00
  0.00000000E+00  0.00000000E+00  0.00000000E+00
  0.00000000E+00  0.00000000E+00  0.00000000E+00
  0.00000000E+00  0.00000000E+00  0.00000000E+00
  0.00000000E+00  0.00000000E+00  0.00000000E+00
  0.00000000E+00  0.00000000E+00  0.00000000E+00
  0.00000000E+00  0.00000000E+00  0.00000000E+00
  0.00000000E+00  0.00000000E+00  0.00000000E+00
  0.00000000E+00  0.00000000E+00  0.00000000E+00
  0.00000000E+00  0.00000000E+00  0.00000000E+00
  0.00000000E+00  0.00000000E+00  0.00000000E+00
  0.00000000E+00  0.00000000E+00  0.00000000E+00
  0.00000000E+00  0.00000000E+00  0.00000000E+00
  0.00000000E+00  0.00000000E+00  0.00000000E+00
  0.00000000E+00  0.00000000E+00  0.00000000E+00
  0.00000000E+00  0.00000000E+00  0.00000000E+00
  0.00000000E+00  0.00000000E+00  0.00000000E+00
  0.00000000E+00  0.00000000E+00  0.00000000E+00
  0.00000000E+00  0.00000000E+00  0.00000000E+00
  0.00000000E+00  0.00000000E+00  0.00000000E+00
  0.00000000E+00  0.00000000E+00  0.00000000E+00
  0.00000000E+00  0.00000000E+00  0.00000000E+00
  0.00000000E+00  0.00000000E+00  0.00000000E+00
  0.00000000E+00  0.00000000E+00  0.00000000E+00
  0.00000000E+00  0.00000000E+00  0.00000000E+00
  0.00000000E+00  0.00000000E+00  0.00000000E+00
  0.00000000E+00  0.00000000E+00  0.00000000E+00
  0.00000000E+00  0.00000000E+00  0.00000000E+00
  0.00000000E+00  0.00000000E+00  0.00000000E+00
