Mo   S    Ni   C    H                   
   1.00000000000000     
    12.7690000533999992    0.0000000000000000    0.0000000000000000
    -6.3845000266999996   11.0582784271999994    0.0000000000000000
     0.0000000000000000    0.0000000000000000   18.1282997130999988
   Mo   S    Ni   C    H 
    16    31     1     2     6
Direct
  0.0750235110545867  0.1578627898579915  0.1433166452517519
  0.3255175302962686  0.1591420644569964  0.1448377185182034
  0.5754673752463929  0.1605346521888791  0.1444205385599865
  0.8251974499346799  0.1582483728851204  0.1427206371478320
  0.0755758963817380  0.4081790843330850  0.1416525585735227
  0.3257775487294241  0.4100532379897622  0.1443448949488811
  0.5826100599485674  0.4148998053824263  0.1457977527342718
  0.8263573440397860  0.4086982016815313  0.1409986520284069
  0.0762790752540692  0.6580683990575530  0.1397342821496087
  0.3240716693329949  0.6592211952351722  0.1420753610776229
  0.5722845065863694  0.6567071291881008  0.1455441490877676
  0.8286316532679960  0.6557490084091739  0.1372417219870494
  0.0734041719105877  0.9072286403743418  0.1426943593754336
  0.3250991333135189  0.9096192600011154  0.1430632657146033
  0.5742112258784575  0.9089516622927283  0.1434052967840390
  0.8236252242334445  0.9068841257544903  0.1428390321745706
  0.1597198302067901  0.0754485808404510  0.0579953442249648
  0.1563109115641136  0.0731674186928249  0.2295681683371387
  0.4092060699537145  0.0777944570543374  0.0583866888775434
  0.4084098825004299  0.0752660481830551  0.2301882086865533
  0.6573564241903426  0.0759656001877932  0.0577871679515590
  0.6591179550911834  0.0762250837860034  0.2292204180154332
  0.9081723541259410  0.0740563803050810  0.0572868373184126
  0.9076867994149976  0.0741675245653441  0.2286776405761703
  0.1602437237748297  0.3243897444883026  0.0571750207182838
  0.1573898382239441  0.3248848294825118  0.2289193801802128
  0.4130996224215329  0.3280859435758969  0.0601637393279029
  0.4107506560777353  0.3279116008579920  0.2302450796833199
  0.6559081817365997  0.3267398665071674  0.0579946231371086
  0.6641804043253967  0.3305970835493510  0.2302278691141347
  0.9086668497069559  0.3233504557875021  0.0556873211109433
  0.9091665537554585  0.3256775467213488  0.2275741990537146
  0.1598025297481243  0.5742828571051575  0.0548418523483445
  0.1567236090183681  0.5750865535504016  0.2272540570241992
  0.4094587856003040  0.5754811536631157  0.0578665171210791
  0.4017462108200736  0.5754957197885554  0.2298988567533870
  0.6571421661343038  0.5758154676022452  0.0589808395959091
  0.9111024788137736  0.5734330632906992  0.0524281792182947
  0.9087999495503875  0.5741882435296393  0.2252242870497156
  0.1595243356630717  0.8276925261644618  0.0561962559869063
  0.1566456837355689  0.8231029256686514  0.2276256457534290
  0.4088376146007588  0.8270477504358140  0.0567934568040135
  0.4072202416208991  0.8254789980869275  0.2287407716572797
  0.6563402170448147  0.8230010899800548  0.0581894220026767
  0.6577914332889343  0.8255438421160891  0.2290963570171904
  0.9087859289514235  0.8268685412454158  0.0550892276909092
  0.8991390123463533  0.8149094793174243  0.2274416585835670
  0.6984828796197391  0.5983565067433471  0.2574104961101505
  0.6721150466430157  0.6077135610655444  0.3696893628454719
  0.7734137695690317  0.5956715954880534  0.3601732568845065
  0.6804447426523934  0.6967786950000524  0.3763529911533046
  0.5859653782188368  0.5310784985660624  0.3872669792961231
  0.7685485843693829  0.5085598142028428  0.3678727271154574
  0.8640615928863028  0.6749442592212729  0.3603057629066455
  0.5754415490708689  0.5924567555777528  0.2426455383601921
  0.5710658980315413  0.5064681901630969  0.2658465540157074
 
             NaN             NaN             NaN
             NaN             NaN             NaN
             NaN             NaN             NaN
             NaN             NaN             NaN
             NaN             NaN             NaN
             NaN             NaN             NaN
             NaN             NaN             NaN
             NaN             NaN             NaN
             NaN             NaN             NaN
             NaN             NaN             NaN
             NaN             NaN             NaN
             NaN             NaN             NaN
             NaN             NaN             NaN
             NaN             NaN             NaN
             NaN             NaN             NaN
             NaN             NaN             NaN
             NaN             NaN             NaN
             NaN             NaN             NaN
             NaN             NaN             NaN
             NaN             NaN             NaN
             NaN             NaN             NaN
             NaN             NaN             NaN
             NaN             NaN             NaN
             NaN             NaN             NaN
             NaN             NaN             NaN
             NaN             NaN             NaN
             NaN             NaN             NaN
             NaN             NaN             NaN
             NaN             NaN             NaN
             NaN             NaN             NaN
             NaN             NaN             NaN
             NaN             NaN             NaN
             NaN             NaN             NaN
             NaN             NaN             NaN
             NaN             NaN             NaN
             NaN             NaN             NaN
             NaN             NaN             NaN
             NaN             NaN             NaN
             NaN             NaN             NaN
             NaN             NaN             NaN
             NaN             NaN             NaN
             NaN             NaN             NaN
             NaN             NaN             NaN
             NaN             NaN             NaN
             NaN             NaN             NaN
             NaN             NaN             NaN
             NaN             NaN             NaN
             NaN             NaN             NaN
             NaN             NaN             NaN
             NaN             NaN             NaN
             NaN             NaN             NaN
             NaN             NaN             NaN
             NaN             NaN             NaN
             NaN             NaN             NaN
             NaN             NaN             NaN
             NaN             NaN             NaN
