Generated by VASPKIT code               
   1.00000000000000     
    12.7690000533999992    0.0000000000000000    0.0000000000000000
    -6.3845000266999996   11.0582784271999994    0.0000000000000000
     0.0000000000000000    0.0000000000000000   18.1282997130999988
   Mo   S    Ni   C    H 
    16    31     1     2     4
Direct
  0.0822454292218582  0.1667043852880244  0.1434366285978556
  0.3325548937760136  0.1687010627760834  0.1431349790470648
  0.5842845709694582  0.1711374850688499  0.1456491060718391
  0.8326356929055172  0.1674355964012716  0.1450181500519737
  0.0831977989943159  0.4174814554821032  0.1429641907715361
  0.3315411728533015  0.4176543578077707  0.1422526412967903
  0.5780960276596250  0.4162696164601000  0.1356715437434336
  0.8363659260785937  0.4218631357621649  0.1420579369438334
  0.0858547404611138  0.6684795497464775  0.1417502435428696
  0.3334825635260183  0.6681249008786927  0.1441126060510549
  0.5780690047583208  0.6581937886893486  0.1475173579274390
  0.8407697411378925  0.6687137250535784  0.1383304453684364
  0.0839762155330117  0.9182188161531403  0.1427098291726625
  0.3349533174940631  0.9191476979396541  0.1443758365930072
  0.5833384216914967  0.9168439074653089  0.1464265171113473
  0.8330755914269680  0.9149441734725225  0.1449779969623071
  0.1662934006516938  0.0845206606923758  0.0571258244598038
  0.1663685633995852  0.0842557895214405  0.2292390753983734
  0.4193486805536011  0.0862005539891779  0.0588463163588767
  0.4163555881296927  0.0865664342425384  0.2300353389982576
  0.6651066083803008  0.0835366171641726  0.0603907553668294
  0.6669234628958403  0.0861290555978434  0.2314379524032730
  0.9135688140742052  0.0818042708634612  0.0589667148148901
  0.9164199590923378  0.0830909507850415  0.2302286176272139
  0.1642387396659307  0.3327759956318095  0.0566682615803921
  0.1654442725960773  0.3334163016813411  0.2288445822669105
  0.4115931556393594  0.3316699239776038  0.0534929499309600
  0.4187429229318764  0.3395668399446071  0.2273611791967836
  0.6684016135368340  0.3337039893143167  0.0555036220870134
  0.6695974096258130  0.3504695026686667  0.2280189777420540
  0.9160856526273365  0.3326954008871286  0.0576485139083160
  0.9168035703591647  0.3362794110008580  0.2290953880948495
  0.1691260408358524  0.5844170181264170  0.0567752410923836
  0.1659240543338164  0.5842047905916519  0.2289725804620303
  0.4190307224601127  0.5866291271107159  0.0586620184099342
  0.4093452337483750  0.5794151212320129  0.2309445268984865
  0.6667901075320777  0.5866169746039429  0.0575895776175674
  0.9215269360950484  0.5839852050213202  0.0536931407369467
  0.9201411250684483  0.5872999448840601  0.2275370548273523
  0.1701007083183401  0.8369494443173842  0.0570700956872506
  0.1669344031009904  0.8345518140085234  0.2286941367214566
  0.4194350926470892  0.8360089092055887  0.0591934509131665
  0.4159840489869813  0.8342193621359387  0.2311606254588666
  0.6635914556139102  0.8285583026681546  0.0616323629989383
  0.6657937372704872  0.8287617597464473  0.2310372490922939
  0.9182434620692164  0.8382242418074765  0.0556686989497886
  0.9163464344563024  0.8294199527545028  0.2281704636224033
  0.6239168220274580  0.5021140169660659  0.2641132722418681
  0.6748384808704047  0.5323196935326120  0.3661942231520059
  0.6249179210050271  0.5948539746074577  0.3523795203192510
  0.7188881984320994  0.4998304210385367  0.4029908899384891
  0.5936172448003866  0.6545627844230814  0.3725035168580320
  0.7306414540828856  0.6058843852393649  0.2090799715690166
  0.5906486749452757  0.6022420638799810  0.2722221104914378
 
  0.40367347E-04  0.30224034E-02  0.38002622E-02
  0.68528250E-02  0.47609888E-02  0.10851638E-01
  0.28081733E-02  0.27192099E-02  0.74028338E-02
  0.11451234E-02  0.27788419E-02  0.21146169E-02
 -0.20513693E-02  0.15346204E-02  0.15291406E-02
 -0.21676434E-02  0.45761997E-02  0.18420716E-01
  0.25647820E-01  0.23817018E-01  0.56255691E-01
 -0.42810124E-02 -0.17784363E-02  0.26312317E-02
 -0.27937804E-02 -0.97028821E-03  0.21060443E-02
 -0.11096286E-01  0.33962721E-03  0.14780906E-02
 -0.21754967E-01  0.27240968E-02  0.94611072E-01
  0.11516580E-01 -0.93149809E-02  0.33790427E-02
  0.14063587E-02  0.16397494E-02  0.23014110E-02
  0.12522316E-03  0.19118014E-02  0.29347318E-02
  0.44467205E-03  0.13631319E-02  0.60162335E-02
  0.26881521E-02  0.77487901E-02  0.11786556E-01
  0.42947297E-02  0.53350400E-02  0.53151216E-02
  0.64963739E-04  0.10551493E-02  0.23027297E-02
 -0.85255929E-03  0.47201432E-02  0.56912233E-02
  0.25062629E-02 -0.55368981E-03  0.70430579E-02
  0.13214034E-02  0.13921209E-02  0.46672586E-02
  0.24031515E-02  0.22488726E-02  0.40544843E-02
  0.94434426E-03  0.30690870E-03  0.36271086E-02
  0.14133480E-02  0.73366822E-02  0.53092955E-02
  0.46719461E-02  0.31379851E-02  0.56988468E-02
 -0.59524335E-02 -0.42174361E-02  0.60243735E-02
  0.18019523E-01  0.14578507E-01  0.27156928E-01
  0.59025042E-02  0.75128298E-02  0.14642886E-01
 -0.14247467E-01  0.50275251E-02  0.11774694E-01
  0.33169950E-02 -0.11149099E-01  0.12860880E-01
 -0.15982866E-02  0.15067895E-02  0.18740653E-02
 -0.17262194E-02  0.24385868E-02  0.24981299E-02
 -0.27590954E-02 -0.76403620E-03  0.70014530E-05
 -0.10177764E-01  0.78639776E-03  0.14048407E-02
  0.10148238E-01 -0.19501204E-02  0.31403773E-01
 -0.64830040E-01 -0.49424441E-02  0.25376451E-01
 -0.18712874E-01  0.93763640E-02  0.45612578E-01
 -0.22737149E-02  0.15242415E-02 -0.93558174E-03
 -0.14663645E-02 -0.48321404E-02  0.64157165E-02
 -0.58013863E-03  0.16749060E-02  0.28161271E-02
 -0.13372826E-03  0.63626118E-03  0.18750887E-02
  0.16744503E-02  0.30334846E-02  0.18020626E-02
 -0.27916124E-02  0.17546225E-02  0.38404475E-02
  0.10114511E-01 -0.58561206E-02  0.26098587E-01
 -0.71806332E-02  0.35478114E-01  0.25659769E-01
 -0.37973481E-02  0.54255816E-02  0.62784427E-02
  0.36364899E-02 -0.98617339E-03  0.27113566E-02
 -0.10217152E+00  0.13855744E+00  0.83434073E-01
  0.47087376E-01 -0.27456586E-01  0.17560545E+00
  0.86985128E-01 -0.70217082E-01  0.24162113E+00
  0.15591542E+00 -0.12318626E+00 -0.32080383E-01
 -0.17563499E-01 -0.29600120E-02 -0.17568873E+00
  0.62710251E-01 -0.52041900E-01  0.10134474E-01
 -0.17309443E+00  0.89035194E-02 -0.84893476E+00
