POSCARNi                                
   1.00000000000000     
    12.7690000533999992    0.0000000000000000    0.0000000000000000
    -6.3845000266999996   11.0582784271999994    0.0000000000000000
     0.0000000000000000    0.0000000000000000   18.1282997130999988
   Mo   S    Ni   C    H 
    16    31     1     2     4
Direct
  0.0850818558904787  0.1718382725755905  0.1403863520346852
  0.3340279585153024  0.1703917605130383  0.1393126195879756
  0.5846689300431118  0.1703681492826706  0.1394228575789976
  0.8349767213373133  0.1718530159982616  0.1405030392452703
  0.0850001304712080  0.4219386690688353  0.1418268597701700
  0.3359047262870934  0.4217711602553021  0.1418692037755589
  0.5835544769684501  0.4190546368571440  0.1432782768133611
  0.8339825427909652  0.4218643115150389  0.1419189934965275
  0.0838476263223880  0.6715795742163438  0.1428740564582307
  0.3360522998910221  0.6715178276894572  0.1429385965495565
  0.5874971668103265  0.6708389666960402  0.1449611308281756
  0.8319505178597875  0.6711870157926824  0.1448813129817128
  0.0862160874125860  0.9222588129955597  0.1403226325519226
  0.3346648057027554  0.9207403781259808  0.1406765836845801
  0.5845632630182287  0.9220346702707617  0.1406448441159880
  0.8352333670442662  0.9219932782235208  0.1417685082061857
  0.1673627939901736  0.0879644685554969  0.0536831700073600
  0.1690697626849745  0.0889973081669427  0.2259685274502137
  0.4176273251934391  0.0867187534776820  0.0538140790762096
  0.4182117663095890  0.0881460579818307  0.2256538990393068
  0.6688128592648614  0.0876565253764722  0.0538950447638610
  0.6682484716255849  0.0890092530975017  0.2261668258994641
  0.9178371150918807  0.0876206043163975  0.0548147020183079
  0.9190583185029201  0.0896800331752596  0.2267161174797428
  0.1693693289056094  0.3399985917741197  0.0555172036945079
  0.1681091768834711  0.3378071752289399  0.2271057015329650
  0.4195930067009505  0.3394070479356721  0.0552932240258300
  0.4152675543667976  0.3349869000469146  0.2262132804114922
  0.6678885075251565  0.3393516507720195  0.0553663649900937
  0.6677700672786115  0.3351067455652673  0.2263455709640077
  0.9185581932908662  0.3400226812859876  0.0555755104465584
  0.9178553718598690  0.3379181113395344  0.2271588688365185
  0.1687473958879409  0.5892515694656931  0.0569533255920862
  0.1681307839665179  0.5880485524349379  0.2282982440661737
  0.4230045566744356  0.5904851167841521  0.0578252956541347
  0.4210067047221724  0.5868826043973304  0.2292166737352467
  0.6674955530639043  0.5866693846761820  0.0604660424237606
  0.9158027493845059  0.5905969800184995  0.0577720633477985
  0.9143233104509264  0.5871338190368255  0.2291482554729868
  0.1672764522460184  0.8359902991479206  0.0552928203306345
  0.1691534109085436  0.8395271026004971  0.2272797237812312
  0.4174818546359728  0.8360022271335890  0.0554079359898611
  0.4187811195549681  0.8394234617672730  0.2274038974012076
  0.6670523608963207  0.8345258329688622  0.0567946663786977
  0.6685119030392532  0.8431984426007006  0.2275632393828327
  0.9160128524436634  0.8347981570819244  0.0566339553431375
  0.9240391619604863  0.8439220496643088  0.2273537272411184
  0.6623050516733414  0.5754755328464475  0.2574407988942633
  0.6044621462282408  0.4620363427144455  0.3401837245196601
  0.6585121805898141  0.5674341227200748  0.3673742674517208
  0.5548129634781565  0.3652492495034899  0.3481361174716570
  0.6899812625140207  0.6292243464033938  0.4135299147257270
  0.7205846996534132  0.6884970868549269  0.3069818378570243
  0.7336593071873699  0.7139252600062609  0.2556395516236916
 
  0.00000000E+00  0.00000000E+00  0.00000000E+00
  0.00000000E+00  0.00000000E+00  0.00000000E+00
  0.00000000E+00  0.00000000E+00  0.00000000E+00
  0.00000000E+00  0.00000000E+00  0.00000000E+00
  0.00000000E+00  0.00000000E+00  0.00000000E+00
  0.00000000E+00  0.00000000E+00  0.00000000E+00
  0.00000000E+00  0.00000000E+00  0.00000000E+00
  0.00000000E+00  0.00000000E+00  0.00000000E+00
  0.00000000E+00  0.00000000E+00  0.00000000E+00
  0.00000000E+00  0.00000000E+00  0.00000000E+00
  0.00000000E+00  0.00000000E+00  0.00000000E+00
  0.00000000E+00  0.00000000E+00  0.00000000E+00
  0.00000000E+00  0.00000000E+00  0.00000000E+00
  0.00000000E+00  0.00000000E+00  0.00000000E+00
  0.00000000E+00  0.00000000E+00  0.00000000E+00
  0.00000000E+00  0.00000000E+00  0.00000000E+00
  0.00000000E+00  0.00000000E+00  0.00000000E+00
  0.00000000E+00  0.00000000E+00  0.00000000E+00
  0.00000000E+00  0.00000000E+00  0.00000000E+00
  0.00000000E+00  0.00000000E+00  0.00000000E+00
  0.00000000E+00  0.00000000E+00  0.00000000E+00
  0.00000000E+00  0.00000000E+00  0.00000000E+00
  0.00000000E+00  0.00000000E+00  0.00000000E+00
  0.00000000E+00  0.00000000E+00  0.00000000E+00
  0.00000000E+00  0.00000000E+00  0.00000000E+00
  0.00000000E+00  0.00000000E+00  0.00000000E+00
  0.00000000E+00  0.00000000E+00  0.00000000E+00
  0.00000000E+00  0.00000000E+00  0.00000000E+00
  0.00000000E+00  0.00000000E+00  0.00000000E+00
  0.00000000E+00  0.00000000E+00  0.00000000E+00
  0.00000000E+00  0.00000000E+00  0.00000000E+00
  0.00000000E+00  0.00000000E+00  0.00000000E+00
  0.00000000E+00  0.00000000E+00  0.00000000E+00
  0.00000000E+00  0.00000000E+00  0.00000000E+00
  0.00000000E+00  0.00000000E+00  0.00000000E+00
  0.00000000E+00  0.00000000E+00  0.00000000E+00
  0.00000000E+00  0.00000000E+00  0.00000000E+00
  0.00000000E+00  0.00000000E+00  0.00000000E+00
  0.00000000E+00  0.00000000E+00  0.00000000E+00
  0.00000000E+00  0.00000000E+00  0.00000000E+00
  0.00000000E+00  0.00000000E+00  0.00000000E+00
  0.00000000E+00  0.00000000E+00  0.00000000E+00
  0.00000000E+00  0.00000000E+00  0.00000000E+00
  0.00000000E+00  0.00000000E+00  0.00000000E+00
  0.00000000E+00  0.00000000E+00  0.00000000E+00
  0.00000000E+00  0.00000000E+00  0.00000000E+00
  0.00000000E+00  0.00000000E+00  0.00000000E+00
  0.00000000E+00  0.00000000E+00  0.00000000E+00
  0.00000000E+00  0.00000000E+00  0.00000000E+00
  0.00000000E+00  0.00000000E+00  0.00000000E+00
  0.00000000E+00  0.00000000E+00  0.00000000E+00
  0.00000000E+00  0.00000000E+00  0.00000000E+00
  0.00000000E+00  0.00000000E+00  0.00000000E+00
  0.00000000E+00  0.00000000E+00  0.00000000E+00
