CONTCARIS2                              
   1.00000000000000     
    12.7690000533999992    0.0000000000000000    0.0000000000000000
    -6.3845000266999996   11.0582784271999994    0.0000000000000000
     0.0000000000000000    0.0000000000000000   18.1282997130999988
   Mo   S    Ni   C    H 
    16    31     1     2     4
Direct
  0.0815671668582627  0.1680509153199444  0.1445725386861592
  0.3331234648277354  0.1713701135467513  0.1451183355174685
  0.5827051573329899  0.1701938019326914  0.1444011339024414
  0.8315302304327540  0.1679602624377161  0.1440434704530448
  0.0814425509292450  0.4183795439801487  0.1427348623930016
  0.3314945122833823  0.4210475126153625  0.1427444707090425
  0.5858799364195444  0.4200552744359228  0.1383529613999245
  0.8339783964797044  0.4198116761204793  0.1412700228705380
  0.0817752798880322  0.6687115913250891  0.1426260346317462
  0.3296423324428418  0.6693920050645622  0.1425784756648674
  0.5740630322449135  0.6667116383880342  0.1435900319631680
  0.8332783384057791  0.6618830272346475  0.1404763224421196
  0.0810992288457254  0.9183403675923884  0.1444457185354893
  0.3318017625019863  0.9200455408336126  0.1443118327131171
  0.5812968521921956  0.9187052372800013  0.1444583415271556
  0.8296227328100290  0.9154235222072599  0.1451912180684861
  0.1660969127746414  0.0857970249741893  0.0591670975046305
  0.1654173716105076  0.0858324278508190  0.2307409878316710
  0.4154872897457826  0.0874514171879756  0.0590692596840187
  0.4159187397768868  0.0870145341619256  0.2304972494475900
  0.6645432892168569  0.0850018805922061  0.0586145535914932
  0.6654070895380061  0.0860210793198140  0.2302256009683950
  0.9140547098230264  0.0824663886442429  0.0592122012086177
  0.9143615237618467  0.0838771265829743  0.2303396233457091
  0.1639393055628512  0.3335744614332006  0.0574743733350406
  0.1650861313697005  0.3359706793009262  0.2292304818369686
  0.4145641313666364  0.3353229747743440  0.0564982878093771
  0.4240783313149132  0.3470134237088520  0.2282100447305229
  0.6660995853705325  0.3333128779250881  0.0549970598282931
  0.6689435263620354  0.3412597666048917  0.2291211196867711
  0.9154062418113628  0.3330102097137508  0.0565647512723867
  0.9151919917710463  0.3360182497336465  0.2286447225596120
  0.1642349120863424  0.5852686754664281  0.0564433640390351
  0.1637733432083597  0.5851496351741662  0.2286502616030549
  0.4116334386158230  0.5853358830100888  0.0561489131814697
  0.4088660581667115  0.5853502468753347  0.2293015345044775
  0.6639835591893920  0.5877613209331108  0.0576338431609531
  0.9178841910352600  0.5857245301531997  0.0543679953826889
  0.9156979055342132  0.5833837362897462  0.2289386830047572
  0.1656902002942738  0.8375521537272541  0.0580545943853209
  0.1643532543893921  0.8348007630116716  0.2297453565386273
  0.4155358366247843  0.8379036442972762  0.0578972921079092
  0.4138282373837396  0.8352961831110468  0.2297566917276792
  0.6650173785755344  0.8358385287375912  0.0584925297100434
  0.6620165168001980  0.8317365947237131  0.2301903149571145
  0.9148360833504007  0.8352180149505265  0.0578403682066066
  0.9100420007200239  0.8263888177043002  0.2285235830348793
  0.6139094014109269  0.4949824419564791  0.2720475756734715
  0.6698574311589383  0.5122923021395848  0.3746737449271980
  0.6322352201969814  0.5845297535309472  0.3631873758209872
  0.7072404712715538  0.4645573684745797  0.4035629084868043
  0.6094857550464508  0.6542214151153575  0.3727963041136296
  0.7096781690206493  0.5523485725448167  0.2009232724813702
  0.6021735308482945  0.6050227252493248  0.2254402908330600
 
  0.00000000E+00  0.00000000E+00  0.00000000E+00
  0.00000000E+00  0.00000000E+00  0.00000000E+00
  0.00000000E+00  0.00000000E+00  0.00000000E+00
  0.00000000E+00  0.00000000E+00  0.00000000E+00
  0.00000000E+00  0.00000000E+00  0.00000000E+00
  0.00000000E+00  0.00000000E+00  0.00000000E+00
  0.00000000E+00  0.00000000E+00  0.00000000E+00
  0.00000000E+00  0.00000000E+00  0.00000000E+00
  0.00000000E+00  0.00000000E+00  0.00000000E+00
  0.00000000E+00  0.00000000E+00  0.00000000E+00
  0.00000000E+00  0.00000000E+00  0.00000000E+00
  0.00000000E+00  0.00000000E+00  0.00000000E+00
  0.00000000E+00  0.00000000E+00  0.00000000E+00
  0.00000000E+00  0.00000000E+00  0.00000000E+00
  0.00000000E+00  0.00000000E+00  0.00000000E+00
  0.00000000E+00  0.00000000E+00  0.00000000E+00
  0.00000000E+00  0.00000000E+00  0.00000000E+00
  0.00000000E+00  0.00000000E+00  0.00000000E+00
  0.00000000E+00  0.00000000E+00  0.00000000E+00
  0.00000000E+00  0.00000000E+00  0.00000000E+00
  0.00000000E+00  0.00000000E+00  0.00000000E+00
  0.00000000E+00  0.00000000E+00  0.00000000E+00
  0.00000000E+00  0.00000000E+00  0.00000000E+00
  0.00000000E+00  0.00000000E+00  0.00000000E+00
  0.00000000E+00  0.00000000E+00  0.00000000E+00
  0.00000000E+00  0.00000000E+00  0.00000000E+00
  0.00000000E+00  0.00000000E+00  0.00000000E+00
  0.00000000E+00  0.00000000E+00  0.00000000E+00
  0.00000000E+00  0.00000000E+00  0.00000000E+00
  0.00000000E+00  0.00000000E+00  0.00000000E+00
  0.00000000E+00  0.00000000E+00  0.00000000E+00
  0.00000000E+00  0.00000000E+00  0.00000000E+00
  0.00000000E+00  0.00000000E+00  0.00000000E+00
  0.00000000E+00  0.00000000E+00  0.00000000E+00
  0.00000000E+00  0.00000000E+00  0.00000000E+00
  0.00000000E+00  0.00000000E+00  0.00000000E+00
  0.00000000E+00  0.00000000E+00  0.00000000E+00
  0.00000000E+00  0.00000000E+00  0.00000000E+00
  0.00000000E+00  0.00000000E+00  0.00000000E+00
  0.00000000E+00  0.00000000E+00  0.00000000E+00
  0.00000000E+00  0.00000000E+00  0.00000000E+00
  0.00000000E+00  0.00000000E+00  0.00000000E+00
  0.00000000E+00  0.00000000E+00  0.00000000E+00
  0.00000000E+00  0.00000000E+00  0.00000000E+00
  0.00000000E+00  0.00000000E+00  0.00000000E+00
  0.00000000E+00  0.00000000E+00  0.00000000E+00
  0.00000000E+00  0.00000000E+00  0.00000000E+00
  0.00000000E+00  0.00000000E+00  0.00000000E+00
  0.00000000E+00  0.00000000E+00  0.00000000E+00
  0.00000000E+00  0.00000000E+00  0.00000000E+00
  0.00000000E+00  0.00000000E+00  0.00000000E+00
  0.00000000E+00  0.00000000E+00  0.00000000E+00
  0.00000000E+00  0.00000000E+00  0.00000000E+00
  0.00000000E+00  0.00000000E+00  0.00000000E+00
