Generated by VASPKIT code               
   1.00000000000000     
    12.7690000533999992    0.0000000000000000    0.0000000000000000
    -6.3845000266999996   11.0582784271999994    0.0000000000000000
     0.0000000000000000    0.0000000000000000   18.1282997130999988
   Mo   S    Ni   C    H 
    16    31     1     2     6
Direct
  0.0755807157766524  0.1603267631244577  0.1440589512708136
  0.3239744146675745  0.1583673915192037  0.1438067965561319
  0.5737509782943815  0.1566237020957485  0.1425849146293716
  0.8248136022164452  0.1594099210612035  0.1434252866641836
  0.0749558313483792  0.4098938692864003  0.1455029128389083
  0.3271886968289011  0.4093071563559111  0.1460108555044510
  0.5730450185459869  0.4018947857801498  0.1410037364314100
  0.8207566761539533  0.4064397611552186  0.1427548652084188
  0.0714716413855064  0.6580890202482492  0.1456955365264619
  0.3255131515095538  0.6590955341265904  0.1468336895457906
  0.5846610504574342  0.6646536065786468  0.1481100485436486
  0.8278849853296978  0.6656747906677372  0.1350616128920152
  0.0736273469502785  0.9102440198682555  0.1435401880704304
  0.3232176924459080  0.9075631036340490  0.1448526355166006
  0.5742092420070738  0.9089669528825738  0.1445505092384481
  0.8247943976335981  0.9112044106537367  0.1425214862441331
  0.1583046371758490  0.0767125941564697  0.0578426409979002
  0.1574765501389276  0.0757093759918296  0.2299348485190226
  0.4054553029619546  0.0727337962502948  0.0578211537193982
  0.4077391934867869  0.0751410351258962  0.2294732956049502
  0.6577106455335843  0.0735909173588495  0.0573358023232643
  0.6581665919378032  0.0762901634633012  0.2294471734242560
  0.9097173566270804  0.0786957952272192  0.0570956224300723
  0.9085911674224301  0.0769192954491827  0.2292195011073977
  0.1607651395256906  0.3289642026395979  0.0596637454015324
  0.1587866214690718  0.3260060903389717  0.2309720236633628
  0.4047713590281370  0.3245161926021373  0.0573168073604491
  0.4110254058375296  0.3249946359669926  0.2298782065103958
  0.6578562387818887  0.3216939783603813  0.0551703708550084
  0.6555435382547995  0.3217181308081731  0.2286296977301176
  0.9094946935599413  0.3265254020546825  0.0582180254053336
  0.9062893604877538  0.3257822071879695  0.2295732651796319
  0.1590655424359688  0.5771028421830742  0.0606292141065328
  0.1562246209972140  0.5756747189410925  0.2317887741433839
  0.4139735097034752  0.5785816671358627  0.0623269446071705
  0.4137458518390379  0.5771804200649706  0.2315138677689204
  0.6555686185077965  0.5747971745491113  0.0590257632719663
  0.9090192573241322  0.5736231259750076  0.0554400638041514
  0.8927985165969365  0.5734850099460947  0.2279608581698371
  0.1563950699992607  0.8235198544026787  0.0591683801599746
  0.1555213890867398  0.8258905699924717  0.2301609121820729
  0.4063400853828519  0.8230606094072349  0.0596273864529345
  0.4080730843815313  0.8263800063845944  0.2315633526648977
  0.6556430596584972  0.8233090328037929  0.0591005396968730
  0.6631671960969021  0.8333588403007204  0.2313675027047351
  0.9114484872488161  0.8323357758319765  0.0532843009364591
  0.9025255669185632  0.8239092820143487  0.2279374698453630
  0.7404573426422643  0.6189775847877951  0.2607078035449030
  0.7277607777976756  0.5734177153431123  0.3676084264863168
  0.6503336682599159  0.6214219727318774  0.3545722547032908
  0.6901821318300314  0.4757645654652816  0.3719527926046386
  0.8161531602269148  0.6295649398804463  0.3931158465499050
  0.6776998559701939  0.7125883435542234  0.3745177942675771
  0.5524080120077643  0.5593495197476508  0.3549890508699122
  0.6431455749159743  0.6536731642793818  0.2748044166314571
  0.6272852941138223  0.5044532407768555  0.2161865910757147
 
 -0.16006392E-02 -0.10313559E-02  0.25361135E-02
 -0.69223946E-04 -0.69769895E-03  0.10892344E-02
  0.15072292E-02  0.30100284E-02  0.84259521E-03
 -0.15043851E-02  0.15359815E-02  0.85504903E-03
  0.64881758E-04 -0.78592468E-03  0.71975227E-03
 -0.38264731E-02 -0.43217258E-02  0.10999427E-01
  0.10889613E-01 -0.69479202E-02 -0.43849746E-03
  0.16365361E-02  0.43133970E-02  0.59236427E-03
  0.37388997E-02 -0.30536003E-02  0.57423600E-02
  0.13903711E-02 -0.11696365E-02  0.72735746E-02
 -0.12634694E-01  0.11323414E-01  0.97932329E-01
  0.15132005E-02 -0.27871093E-01  0.50821995E-01
  0.10918343E-03 -0.53616145E-02  0.64155235E-02
 -0.41545756E-03 -0.17046195E-02  0.14877677E-02
 -0.76327120E-02  0.95358149E-02  0.70434331E-03
 -0.53445187E-02 -0.20741352E-02  0.20339204E-01
 -0.15568222E-02 -0.36332094E-02  0.27286571E-02
  0.57000291E-03  0.37221063E-03  0.48845610E-03
  0.24491266E-03 -0.97678737E-03  0.41439964E-02
  0.55962372E-03  0.28325715E-04  0.54960517E-04
  0.56925637E-03  0.29010553E-02 -0.15733075E-02
 -0.35430238E-02  0.70721597E-02  0.16280545E-02
 -0.13193057E-02 -0.72915362E-02  0.68951582E-02
  0.58470256E-03  0.65493955E-02  0.59887857E-02
  0.16284972E-02  0.10804127E-03  0.25264666E-02
 -0.47889250E-02 -0.40862352E-02  0.37151799E-02
 -0.85292636E-02  0.12285195E-02  0.38632659E-02
  0.38700183E-02 -0.16424725E-02  0.12634708E-02
  0.15272712E-03  0.28028136E-03 -0.20588959E-02
  0.42129698E-02  0.36363983E-02  0.32856938E-02
 -0.59981440E-04  0.10539159E-02  0.51442077E-04
 -0.71501290E-03  0.12890635E-02  0.56176195E-03
  0.37639067E-02  0.14156597E-03  0.35309449E-02
  0.46775583E-02 -0.59170750E-02  0.10711211E-01
  0.15311241E-01 -0.62966525E-03  0.25819293E-01
 -0.34473771E-01 -0.12359772E-01  0.29121904E-01
 -0.16271151E-01  0.15939067E-01  0.49863051E-01
 -0.53571587E-02  0.87542132E-02  0.61809913E-02
  0.19014829E-01  0.11458502E-02  0.67921557E-02
 -0.40361260E-02 -0.79560890E-03  0.46334249E-02
  0.21532890E-02 -0.67214730E-03  0.37803594E-02
  0.14356021E-03 -0.43636419E-02  0.38120448E-03
 -0.35823911E-02  0.24159258E-02  0.33447212E-02
  0.54129981E-02 -0.12413441E-01  0.35486213E-01
 -0.32684115E-01  0.56780828E-01  0.26380566E-01
 -0.58854523E-02 -0.16967871E-01  0.21557788E-01
  0.38512843E-02 -0.65950063E-02  0.91585015E-02
 -0.15695428E+00  0.22476532E-01  0.80244531E-01
 -0.18245866E-02 -0.25966142E-01  0.15341850E+00
  0.95432010E-01 -0.84048613E-01  0.26977161E+00
  0.56387620E-01 -0.28722607E-01 -0.15115452E-02
  0.70162921E-01 -0.42605150E-02 -0.31710519E-02
  0.43620084E-01  0.13724301E-01 -0.56524502E-01
  0.36966832E-01 -0.16007205E-02 -0.68538307E-01
 -0.12804518E+00  0.13808658E+00 -0.87531802E+00
  0.52495676E-01 -0.34773565E-01  0.10233435E-01
