POSCARxPz1                              
   1.00000000000000     
    12.7690000533999992    0.0000000000000000    0.0000000000000000
    -6.3845000266999996   11.0582784271999994    0.0000000000000000
     0.0000000000000000    0.0000000000000000   18.1282997130999988
   Mo   S    Ni   C    H 
    16    31     1     2     6
Direct
  0.0830624855763830  0.1638678962857055  0.1451940367299515
  0.3322604596374167  0.1623505568306830  0.1452831503336984
  0.5829656756076663  0.1639870985693059  0.1475503240225024
  0.8329579497679018  0.1637283557516112  0.1468383418193414
  0.0827046716219420  0.4138648708336083  0.1460978757718456
  0.3324919953633065  0.4127112870889355  0.1466157768811251
  0.5805297995713499  0.4141189056041228  0.1482039213047774
  0.8322693063748657  0.4147804908319697  0.1463086228395819
  0.0827942113584365  0.6635098666381349  0.1449354315630727
  0.3325504092462155  0.6634968708202517  0.1465303288377972
  0.5856246890361021  0.6612861632976620  0.1488714335801340
  0.8377555111578505  0.6680999467370663  0.1417743154313805
  0.0848426930259084  0.9152343208313855  0.1432237601362633
  0.3338613477787112  0.9134113653254160  0.1459494852629505
  0.5834310372002367  0.9118631488815894  0.1480781243378775
  0.8341619872073024  0.9137031449517948  0.1454506407247730
  0.1674574901193491  0.0823236610205214  0.0582134271841894
  0.1653952801494840  0.0790718520618161  0.2306626209402361
  0.4182468766526858  0.0803806923323822  0.0603343064140464
  0.4153001147003123  0.0793889869896191  0.2322458370912377
  0.6654113042209033  0.0789878378660188  0.0620201062920584
  0.6668433757785681  0.0801664716492398  0.2332476238330594
  0.9153686244059920  0.0808274742127552  0.0598736174608390
  0.9171133181924483  0.0802308154949086  0.2316922613125674
  0.1667036392847722  0.3312930717236359  0.0600016800562983
  0.1652818940985097  0.3295966528338239  0.2319343394993023
  0.4173156265265594  0.3308595545949471  0.0606086232568407
  0.4106289425559284  0.3244697988043747  0.2324833107025558
  0.6642206429435182  0.3307996654158890  0.0615939172514940
  0.6665042701758336  0.3337303524188204  0.2330242209031387
  0.9150271236705653  0.3300769873185361  0.0608102345717620
  0.9160844158021393  0.3312370586717300  0.2321674921769102
  0.1669221638498302  0.5801028935125450  0.0598579157062058
  0.1647405687653623  0.5803748719518603  0.2319101710937606
  0.4195503191848836  0.5813996052455357  0.0618546182313036
  0.4142578339585282  0.5800978297582983  0.2325073706905904
  0.6661906654686565  0.5795450173913437  0.0621873688174217
  0.9170099762760849  0.5790008451235266  0.0582023978409849
  0.9127186197132821  0.5825540502230899  0.2306847229700949
  0.1683889234101056  0.8301887439112582  0.0589104301336060
  0.1657581623089808  0.8305551235844331  0.2304695177890975
  0.4184289951795116  0.8300617018175553  0.0610130221431309
  0.4156576060054509  0.8296347246102810  0.2329023439419765
  0.6642310477564016  0.8261920622371173  0.0618557464147327
  0.6697861230076498  0.8274090827273727  0.2334536294916764
  0.9183485945079224  0.8338980952430470  0.0569317278858619
  0.9191335652300618  0.8317666550419199  0.2292207913445938
  0.6878228983579036  0.5858443009197215  0.2534602029531984
  0.6079252395395355  0.5329370808827997  0.3492605131138773
  0.7296812949841105  0.6318745788396541  0.3688018005241834
  0.5318202498030196  0.5485669341507795  0.3560534966910973
  0.5859150696011668  0.4400438105855515  0.3608175582589295
  0.7869519087863308  0.6040160126485117  0.3981928194080028
  0.7325194224898229  0.7113797523340253  0.3941229793452448
  0.7915094051861001  0.6797807171972332  0.3164025348426359
  0.5641236078201678  0.5210945373742590  0.2199625218441829
 
  0.00000000E+00  0.00000000E+00  0.00000000E+00
  0.00000000E+00  0.00000000E+00  0.00000000E+00
  0.00000000E+00  0.00000000E+00  0.00000000E+00
  0.00000000E+00  0.00000000E+00  0.00000000E+00
  0.00000000E+00  0.00000000E+00  0.00000000E+00
  0.00000000E+00  0.00000000E+00  0.00000000E+00
  0.00000000E+00  0.00000000E+00  0.00000000E+00
  0.00000000E+00  0.00000000E+00  0.00000000E+00
  0.00000000E+00  0.00000000E+00  0.00000000E+00
  0.00000000E+00  0.00000000E+00  0.00000000E+00
  0.00000000E+00  0.00000000E+00  0.00000000E+00
  0.00000000E+00  0.00000000E+00  0.00000000E+00
  0.00000000E+00  0.00000000E+00  0.00000000E+00
  0.00000000E+00  0.00000000E+00  0.00000000E+00
  0.00000000E+00  0.00000000E+00  0.00000000E+00
  0.00000000E+00  0.00000000E+00  0.00000000E+00
  0.00000000E+00  0.00000000E+00  0.00000000E+00
  0.00000000E+00  0.00000000E+00  0.00000000E+00
  0.00000000E+00  0.00000000E+00  0.00000000E+00
  0.00000000E+00  0.00000000E+00  0.00000000E+00
  0.00000000E+00  0.00000000E+00  0.00000000E+00
  0.00000000E+00  0.00000000E+00  0.00000000E+00
  0.00000000E+00  0.00000000E+00  0.00000000E+00
  0.00000000E+00  0.00000000E+00  0.00000000E+00
  0.00000000E+00  0.00000000E+00  0.00000000E+00
  0.00000000E+00  0.00000000E+00  0.00000000E+00
  0.00000000E+00  0.00000000E+00  0.00000000E+00
  0.00000000E+00  0.00000000E+00  0.00000000E+00
  0.00000000E+00  0.00000000E+00  0.00000000E+00
  0.00000000E+00  0.00000000E+00  0.00000000E+00
  0.00000000E+00  0.00000000E+00  0.00000000E+00
  0.00000000E+00  0.00000000E+00  0.00000000E+00
  0.00000000E+00  0.00000000E+00  0.00000000E+00
  0.00000000E+00  0.00000000E+00  0.00000000E+00
  0.00000000E+00  0.00000000E+00  0.00000000E+00
  0.00000000E+00  0.00000000E+00  0.00000000E+00
  0.00000000E+00  0.00000000E+00  0.00000000E+00
  0.00000000E+00  0.00000000E+00  0.00000000E+00
  0.00000000E+00  0.00000000E+00  0.00000000E+00
  0.00000000E+00  0.00000000E+00  0.00000000E+00
  0.00000000E+00  0.00000000E+00  0.00000000E+00
  0.00000000E+00  0.00000000E+00  0.00000000E+00
  0.00000000E+00  0.00000000E+00  0.00000000E+00
  0.00000000E+00  0.00000000E+00  0.00000000E+00
  0.00000000E+00  0.00000000E+00  0.00000000E+00
  0.00000000E+00  0.00000000E+00  0.00000000E+00
  0.00000000E+00  0.00000000E+00  0.00000000E+00
  0.00000000E+00  0.00000000E+00  0.00000000E+00
  0.00000000E+00  0.00000000E+00  0.00000000E+00
  0.00000000E+00  0.00000000E+00  0.00000000E+00
  0.00000000E+00  0.00000000E+00  0.00000000E+00
  0.00000000E+00  0.00000000E+00  0.00000000E+00
  0.00000000E+00  0.00000000E+00  0.00000000E+00
  0.00000000E+00  0.00000000E+00  0.00000000E+00
  0.00000000E+00  0.00000000E+00  0.00000000E+00
  0.00000000E+00  0.00000000E+00  0.00000000E+00
