POSCARCo                                
   1.00000000000000     
    12.7690000533999992    0.0000000000000000    0.0000000000000000
    -6.3845000266999996   11.0582784271999994    0.0000000000000000
     0.0000000000000000    0.0000000000000000   18.1282997130999988
   Mo   S    Ni   C    H 
    16    31     1     2     6
Direct
  0.0764025169712880  0.1577832702011783  0.1451205451738699
  0.3261131651525557  0.1581277414935004  0.1450646488782238
  0.5757772168271650  0.1572930123090692  0.1432413248957081
  0.8261300891032601  0.1577541344454077  0.1433513998495525
  0.0764949631653308  0.4078115522351526  0.1443745603674683
  0.3288490795725930  0.4096857952955292  0.1458096519492548
  0.5824844505464222  0.4055002410884225  0.1412043363550166
  0.8248230825634562  0.4051283351203402  0.1416201205973079
  0.0743569608873768  0.6565330927946327  0.1444801249868563
  0.3256201869078937  0.6580173135753742  0.1448491470900914
  0.5772506959680413  0.6646315953490367  0.1447934115550116
  0.8256563563928070  0.6541756899303074  0.1382959044762963
  0.0731261777285054  0.9062774330251391  0.1457125400445237
  0.3244239087210612  0.9074617902254709  0.1447380174580435
  0.5750967442583902  0.9094739376513407  0.1432847645614079
  0.8233862061329250  0.9076609332949070  0.1435154795355133
  0.1587512212337704  0.0733395671779595  0.0597381129621147
  0.1586529555164901  0.0739591195357392  0.2313157872274121
  0.4070354089185649  0.0736427732535367  0.0585801507703339
  0.4095415176646573  0.0746418930962490  0.2302682775810371
  0.6592626370290888  0.0748320891596695  0.0570748090694603
  0.6593572032711703  0.0753601031149872  0.2293216834097833
  0.9107294108687043  0.0751218215506538  0.0581032916547515
  0.9086982894616462  0.0743054689619127  0.2298763797336470
  0.1619884134878682  0.3252055476927141  0.0596332898857134
  0.1603691840266907  0.3250388774064181  0.2308051962692805
  0.4092219940777057  0.3244742885807709  0.0585227829435919
  0.4178684712597813  0.3290024288545417  0.2291509920934800
  0.6586705380685300  0.3211209357935391  0.0549237363297343
  0.6614272528772480  0.3233132561515802  0.2295007988774507
  0.9113484231522700  0.3235135886879398  0.0569571801357451
  0.9086838472941483  0.3242042149146545  0.2290947636885473
  0.1595762304307312  0.5747195414348621  0.0587586035512245
  0.1583317366162307  0.5740638196009776  0.2305231474882508
  0.4088878729016854  0.5743813561208388  0.0591972003413812
  0.4117127332239296  0.5771334853606379  0.2309162471728837
  0.6565923631084816  0.5751672667868453  0.0585567803967707
  0.9112839919891755  0.5727522514847271  0.0549379201030697
  0.9035861606123150  0.5704742523174277  0.2291830735547069
  0.1571509579002743  0.8241904794567216  0.0593665349527389
  0.1573101292001253  0.8231177563378436  0.2307946275445686
  0.4069111527824310  0.8239463334501864  0.0583254686312890
  0.4089431410583584  0.8253176173657027  0.2302575739172649
  0.6590016366237510  0.8269664576784655  0.0571005854779987
  0.6589711517897606  0.8301993523580449  0.2300905843914261
  0.9094308961909211  0.8253854612000335  0.0568771052152484
  0.8974406474816363  0.8150279099048647  0.2287508274717337
  0.7487378592770503  0.6245035198360430  0.2697893693332192
  0.6522809631149283  0.5973256845545269  0.3645553188372844
  0.7504133498779606  0.5812632259449090  0.3778347428807358
  0.6556716119978887  0.6825353142541457  0.3777227360738879
  0.5619861804489087  0.5196908966052705  0.3555333203759602
  0.7394463034250974  0.4906532992614427  0.3794535908548788
  0.8342096511052557  0.6536472541739885  0.4016143594118188
  0.6358850905729027  0.6350618050082725  0.2278241103844304
  0.6922098201627993  0.5289239235355248  0.2002129052309950
 
  0.00000000E+00  0.00000000E+00  0.00000000E+00
  0.00000000E+00  0.00000000E+00  0.00000000E+00
  0.00000000E+00  0.00000000E+00  0.00000000E+00
  0.00000000E+00  0.00000000E+00  0.00000000E+00
  0.00000000E+00  0.00000000E+00  0.00000000E+00
  0.00000000E+00  0.00000000E+00  0.00000000E+00
  0.00000000E+00  0.00000000E+00  0.00000000E+00
  0.00000000E+00  0.00000000E+00  0.00000000E+00
  0.00000000E+00  0.00000000E+00  0.00000000E+00
  0.00000000E+00  0.00000000E+00  0.00000000E+00
  0.00000000E+00  0.00000000E+00  0.00000000E+00
  0.00000000E+00  0.00000000E+00  0.00000000E+00
  0.00000000E+00  0.00000000E+00  0.00000000E+00
  0.00000000E+00  0.00000000E+00  0.00000000E+00
  0.00000000E+00  0.00000000E+00  0.00000000E+00
  0.00000000E+00  0.00000000E+00  0.00000000E+00
  0.00000000E+00  0.00000000E+00  0.00000000E+00
  0.00000000E+00  0.00000000E+00  0.00000000E+00
  0.00000000E+00  0.00000000E+00  0.00000000E+00
  0.00000000E+00  0.00000000E+00  0.00000000E+00
  0.00000000E+00  0.00000000E+00  0.00000000E+00
  0.00000000E+00  0.00000000E+00  0.00000000E+00
  0.00000000E+00  0.00000000E+00  0.00000000E+00
  0.00000000E+00  0.00000000E+00  0.00000000E+00
  0.00000000E+00  0.00000000E+00  0.00000000E+00
  0.00000000E+00  0.00000000E+00  0.00000000E+00
  0.00000000E+00  0.00000000E+00  0.00000000E+00
  0.00000000E+00  0.00000000E+00  0.00000000E+00
  0.00000000E+00  0.00000000E+00  0.00000000E+00
  0.00000000E+00  0.00000000E+00  0.00000000E+00
  0.00000000E+00  0.00000000E+00  0.00000000E+00
  0.00000000E+00  0.00000000E+00  0.00000000E+00
  0.00000000E+00  0.00000000E+00  0.00000000E+00
  0.00000000E+00  0.00000000E+00  0.00000000E+00
  0.00000000E+00  0.00000000E+00  0.00000000E+00
  0.00000000E+00  0.00000000E+00  0.00000000E+00
  0.00000000E+00  0.00000000E+00  0.00000000E+00
  0.00000000E+00  0.00000000E+00  0.00000000E+00
  0.00000000E+00  0.00000000E+00  0.00000000E+00
  0.00000000E+00  0.00000000E+00  0.00000000E+00
  0.00000000E+00  0.00000000E+00  0.00000000E+00
  0.00000000E+00  0.00000000E+00  0.00000000E+00
  0.00000000E+00  0.00000000E+00  0.00000000E+00
  0.00000000E+00  0.00000000E+00  0.00000000E+00
  0.00000000E+00  0.00000000E+00  0.00000000E+00
  0.00000000E+00  0.00000000E+00  0.00000000E+00
  0.00000000E+00  0.00000000E+00  0.00000000E+00
  0.00000000E+00  0.00000000E+00  0.00000000E+00
  0.00000000E+00  0.00000000E+00  0.00000000E+00
  0.00000000E+00  0.00000000E+00  0.00000000E+00
  0.00000000E+00  0.00000000E+00  0.00000000E+00
  0.00000000E+00  0.00000000E+00  0.00000000E+00
  0.00000000E+00  0.00000000E+00  0.00000000E+00
  0.00000000E+00  0.00000000E+00  0.00000000E+00
  0.00000000E+00  0.00000000E+00  0.00000000E+00
  0.00000000E+00  0.00000000E+00  0.00000000E+00
